%mem=30000MB
%nprocshared=8
# opt freq=noraman b3lyp/gen pseudo=read

af

0 1
 Au                -0.16888600   -0.53913000    0.00403300
 S                  1.95120000   -1.52097200    0.11114100
 P                 -2.30567300    0.29827200   -0.10691400
 C                 -3.50035900   -0.88288700   -0.83278500
 C                 -3.50423100   -2.24994400   -0.15363800
 C                 -3.00064100    0.74226500    1.52705700
 C                 -2.18883900    1.80422600    2.26324800
 C                 -2.41218900    1.80504500   -1.14305800
 C                 -3.78728400    2.45702000   -1.25462900
 H                 -4.49698900   -0.42862600   -0.79702600
 H                 -3.22469000   -0.97971000   -1.88911100
 H                 -4.20188400   -2.91985900   -0.66550400
 H                 -3.81826200   -2.18362400    0.89249600
 H                 -2.51029100   -2.70829700   -0.18112600
 H                 -4.03816400    1.06558900    1.38219400
 H                 -3.03167100   -0.18506500    2.10891600
 H                 -2.61740600    1.98680400    3.25329500
 H                 -2.18323900    2.75665300    1.72389100
 H                 -1.14998400    1.48471500    2.39668000
 H                 -2.03707400    1.50858800   -2.12932400
 H                 -1.67689900    2.50902100   -0.73781400
 H                 -4.52690100    1.77922300   -1.69058700
 H                 -3.72502100    3.33779500   -1.90143300
 H                 -4.16182300    2.78986800   -0.28193600
 C                  3.17505500   -0.25420800   -0.01180800
 C                  2.88276600    1.11379900   -0.10464300
 C                  4.52343600   -0.64472900   -0.01212400
 C                  3.90420200    2.05524800   -0.19527000
 H                  1.84592200    1.43883200   -0.10523600
 C                  5.54025500    0.30027800   -0.10304300
 H                  4.77195500   -1.70033900    0.05895400
 C                  5.23974100    1.65839100   -0.19535100
 H                  3.64920900    3.10942100   -0.26628400
 H                  6.57556500   -0.03046800   -0.10164000
 H                  6.03406300    2.39520500   -0.26626800

C H S P 0
6-31g(d)
****
Au     0
S    1   1.00
      2.8090000              1.0000000
S    1   1.00
      1.5950000              1.0000000
S    1   1.00
      0.5327000              1.0000000
S    1   1.00
      0.2826000              1.0000000
S    1   1.00
      0.0598000              1.0000000
P    1   1.00
      3.6840000              1.0000000
P    1   1.00
      1.6660000              1.0000000
P    1   1.00
      0.5989000              1.0000000
P    1   1.00
      0.0977000              1.0000000
P    1   1.00
      0.0279000              1.0000000
D    1   1.00
      1.2870000              1.0000000
D    1   1.00
      0.4335000              1.0000000
D    1   1.00
      0.1396000              1.0000000
F    1   1.00
      1.0500000              1.0000000
****

AU     0
AU-ECP     4     60
g potential
  5
1    622.6287956            -60.0000000
2    136.2843607           -555.5292312
2     33.1549781           -168.0019785
2      9.9894895            -63.0399875
2      3.0481312             -4.2516681
s-g potential
  6
0    194.7374304              3.0000000
1    351.5327447             38.6020880
2    122.3270402            864.8370727
2     32.0914617            374.9935520
2      5.2451812            289.7910100
2      4.4916223           -152.4532773
p-g potential
  4
0    420.6158801              2.0000000
1    109.4417815             73.8885625
2     34.1714280            326.6729872
2      5.9879750            126.5814591
d-g potential
  5
0    219.2666158              3.0000000
1    122.7297786             55.6793149
2     63.1063369            449.1987335
2     18.3684520            215.0269091
2      4.4972844             64.0840995
f-g potential
  5
0    108.5506037              4.0000000
1     56.4795527             51.8065335
2     29.2069159            231.2183113
2      9.5440543            119.0047386
2      2.8965118             15.3424188

