%mem=30000MB
%nprocshared=8
# opt freq=noraman b3lyp/gen pseudo=read

Title Card Required

0 1
 Au                -1.97674500    0.05698700   -0.87087200
 P                 -2.94177700   -1.69779600    0.52060300
 C                 -4.16328400   -2.76046600   -0.38162000
 H                 -4.49176900   -3.54727700    0.30161000
 H                 -3.60298000   -3.24892000   -1.19011000
 C                 -3.72440500   -1.21945600    2.12247900
 H                 -4.13760400   -2.13270100    2.58127500
 H                 -4.55919000   -0.55681000    1.90239100
 C                 -1.53602700   -2.82769500    0.93992900
 H                 -0.77486800   -2.21678100    1.44928900
 H                 -1.09689600   -3.10914200   -0.02517600
 C                 -5.35825700   -1.98776000   -0.95022800
 H                 -5.92857100   -1.47282900   -0.16921700
 H                 -5.03277200   -1.24762900   -1.68417100
 H                 -6.04658600   -2.68786700   -1.45620800
 C                 -1.88435300   -4.07199900    1.77192700
 H                 -0.96000200   -4.64210400    1.93755600
 H                 -2.30044100   -3.81755500    2.75445400
 H                 -2.58714900   -4.73471100    1.26111500
 C                 -2.73657700   -0.53179300    3.08027600
 H                 -2.27866500    0.35102000    2.62361500
 H                 -3.26292900   -0.21267400    3.98380000
 H                 -1.92902200   -1.20578000    3.39183400
 S                 -3.16366400    2.17982300   -0.42500900
 N                  5.02087100   -1.38592800    3.64631200
 C                  4.16503500   -1.68013500    2.48306500
 C                  4.73412500   -1.02652400    1.21297200
 O                  5.14037700    0.12316100    1.25450100
 C                  2.75704900   -1.12225800    2.81651300
 O                  1.75924100   -1.44267400    1.85370200
 N                  4.82103500   -1.75086700    0.03970500
 C                  4.36074400   -3.09624900   -0.24527100
 C                  2.83478300   -3.26802200   -0.14907700
 O                  2.34213100   -3.97847500    0.73994900
 N                  2.05055100   -2.61215300   -1.02769900
 C                  2.35776100   -1.67801400   -2.09631900
 C                  2.80114300   -0.25887400   -1.69852900
 O                  3.61932500    0.32435100   -2.41070000
 C                  1.08596700   -1.53321600   -3.02116800
 S                 -0.66073000   -1.85066600   -2.29887100
 N                  2.15795400    0.31902800   -0.65022200
 C                  2.04293700    1.77443400   -0.56505800
 C                  0.58173200    2.28503100   -0.72215500
 C                  2.56649500    2.24409500    0.81323600
 O                  1.88999300    2.06115800    1.82384100
 N                  3.75606400    2.89293400    0.84015700
 C                  4.78527200    2.86529200   -0.17222800
 C                  6.12869700    3.04093800    0.49901800
 O                  6.29865000    3.29807000    1.67128100
 O                  7.14166300    2.91224100   -0.38108100
 H                  2.48612000   -1.51863700    3.81024800
 H                  2.77979200   -0.03181800    2.87638500
 H                  1.75564500   -2.41322000    1.72873800
 H                  4.08628800   -2.76766600    2.38240800
 H                  5.26341900   -0.39514700    3.59267000
 H                  5.90194500   -1.89052400    3.54962100
 H                  4.78443300   -3.82252800    0.45911600
 H                  4.71329500   -3.35763100   -1.24829400
 H                  5.14530500   -1.18345100   -0.73726200
 H                  1.14725500   -2.37861300   -3.75702000
 H                  1.14386700   -0.56255400   -3.56881000
 H                  3.16409400   -2.05973700   -2.72837500
 H                  1.03711600   -2.74806800   -0.90081800
 H                  0.61091400    3.38284000   -0.81730200
 H                  0.02312800    2.06662300    0.18269300
 H                  2.65362700    2.16412200   -1.37658500
 H                  1.62260400   -0.26055900    0.00263800
 H                  4.67623700    3.68043400   -0.90288500
 H                  4.79969200    1.92562600   -0.73019200
 H                  4.10605000    3.08161500    1.77551700
 H                  7.96404500    3.05382900    0.12487000
 Se                -0.37963900    1.46546200   -2.25252600
 C                 -4.49001200    2.12328000    0.74482500
 C                 -5.75987200    1.66517000    0.36666800
 C                 -4.29324000    2.59411100    2.05928900
 C                 -6.80798600    1.64186700    1.28680800
 H                 -5.92095800    1.33650000   -0.65895900
 C                 -5.34540600    2.57546500    2.97517600
 H                 -3.31350100    2.96718500    2.35013400
 C                 -6.59562400    2.08454800    2.60121300
 H                 -7.79193800    1.27577400    0.98213500
 H                 -5.19127000    2.93472700    3.99177000
 H                 -7.41679800    2.06097700    3.31316000

C H N O S Se P 0
6-31g(d)
****
Au     0
S    1   1.00
      2.8090000              1.0000000
S    1   1.00
      1.5950000              1.0000000
S    1   1.00
      0.5327000              1.0000000
S    1   1.00
      0.2826000              1.0000000
S    1   1.00
      0.0598000              1.0000000
P    1   1.00
      3.6840000              1.0000000
P    1   1.00
      1.6660000              1.0000000
P    1   1.00
      0.5989000              1.0000000
P    1   1.00
      0.0977000              1.0000000
P    1   1.00
      0.0279000              1.0000000
D    1   1.00
      1.2870000              1.0000000
D    1   1.00
      0.4335000              1.0000000
D    1   1.00
      0.1396000              1.0000000
F    1   1.00
      1.0500000              1.0000000
****

AU     0
AU-ECP     4     60
g potential
  5
1    622.6287956            -60.0000000
2    136.2843607           -555.5292312
2     33.1549781           -168.0019785
2      9.9894895            -63.0399875
2      3.0481312             -4.2516681
s-g potential
  6
0    194.7374304              3.0000000
1    351.5327447             38.6020880
2    122.3270402            864.8370727
2     32.0914617            374.9935520
2      5.2451812            289.7910100
2      4.4916223           -152.4532773
p-g potential
  4
0    420.6158801              2.0000000
1    109.4417815             73.8885625
2     34.1714280            326.6729872
2      5.9879750            126.5814591
d-g potential
  5
0    219.2666158              3.0000000
1    122.7297786             55.6793149
2     63.1063369            449.1987335
2     18.3684520            215.0269091
2      4.4972844             64.0840995
f-g potential
  5
0    108.5506037              4.0000000
1     56.4795527             51.8065335
2     29.2069159            231.2183113
2      9.5440543            119.0047386
2      2.8965118             15.3424188

