%mem=30000MB
%nprocshared=15
%chk=au-1to3-ts-2-af19-c-term-level3-freq-se-new.chk
# opt=(ts,readfc,noeigentest) freq=noraman b3lyp/gen pseudo=read

Title Card Required

0 1
Au    -2.443075    -0.258766    -0.423352
 P    -3.790935    -1.961111     0.511466
 C    -4.932143    -2.769292    -0.709864
 H    -5.577164    -3.475707    -0.172667
 H    -4.290170    -3.358064    -1.376617
 C    -4.890715    -1.331608     1.866233
 H    -5.479596    -2.172237     2.257207
 H    -5.591532    -0.630267     1.399480
 C    -2.831876    -3.367208     1.259788
 H    -2.211966    -2.923517     2.048896
 H    -2.131734    -3.694378     0.479808
 C    -5.778335    -1.785920    -1.529426
 H    -6.458204    -1.208326    -0.894567
 H    -5.147000    -1.079796    -2.077228
 H    -6.390640    -2.331058    -2.256422
 C    -3.634292    -4.555547     1.807688
 H    -2.951960    -5.300166     2.233219
 H    -4.325775    -4.254460     2.603181
 H    -4.215818    -5.053761     1.023981
 C    -4.125455    -0.621886     2.990571
 H    -3.596784     0.255899     2.604820
 H    -4.823688    -0.283399     3.765088
 H    -3.391772    -1.280614     3.470171
 S    -2.829569     1.980648    -0.532491
 N     6.731874    -0.853578     2.829345
 C     5.604848    -1.326963     2.021703
 C     5.663437    -0.735327     0.600398
 O     5.917018     0.458438     0.450498
 C     4.307657    -0.883860     2.740729
 O     3.111514    -1.347489     2.123824
 N     5.468118    -1.533145    -0.500442
 C     5.110718    -2.945679    -0.555808
 C     3.712898    -3.257854     0.001171
 O     3.593429    -3.914286     1.039623
 N     2.629486    -2.757262    -0.645229
 C     2.561952    -1.911810    -1.825978
 C     2.829148    -0.407953    -1.624691
 O     3.196431     0.258737    -2.591669
 C     1.155801    -2.045044    -2.468416
 S    -0.287308    -1.812912    -1.318934
 N     2.507950     0.109253    -0.413884
 C     2.074772     1.495147    -0.289366
 C     0.556020     1.538426    -0.077945
 C     2.780633     2.159063     0.910950
 O     2.361942     1.986223     2.051211
 N     3.858844     2.944815     0.642278
 C     4.617929     3.014612    -0.591807
 C     6.037386     3.431378    -0.257875
 O     6.424851     3.763496     0.839910
 O     6.818194     3.429897    -1.355840
 H     4.380334    -1.230070     3.778795
 H     4.240501     0.206643     2.746630
 H     3.118673    -2.322482     2.141342
 H     5.628355    -2.421008     2.003800
 H     6.827121     0.149370     2.664502
 H     7.597443    -1.272830     2.493692
 H     5.809198    -3.556646     0.021531
 H     5.188966    -3.257008    -1.602373
 H     5.491643    -1.014429    -1.371623
 H     1.034620    -3.066967    -2.847609
 H     1.080130    -1.349987    -3.306485
 H     3.286179    -2.254913    -2.573043
 H     1.747236    -2.910384    -0.161838
 H     0.184283     2.559833     0.036890
 H     0.268996     0.977280     0.811152
 H     2.340000     1.986863    -1.226575
 H     2.391444    -0.499554     0.396995
 H     4.207241     3.755968    -1.293137
 H     4.659881     2.054046    -1.110882
 H     4.361951     3.270724     1.463266
 H     7.703778     3.713692    -1.060432
Se    -0.469249     0.822195    -1.630121
 C    -4.282861     2.728637     0.215010
 C    -5.541790     2.097423     0.183795
 C    -4.177479     3.983051     0.842132
 C    -6.650747     2.689313     0.788214
 H    -5.644887     1.144207    -0.332177
 C    -5.293130     4.584873     1.424269
 H    -3.214314     4.489151     0.867907
 C    -6.535822     3.935483     1.410195
 H    -7.616760     2.177887     0.759169
 H    -5.190237     5.558634     1.900798
 H    -7.398827     4.403147     1.876121

C H N O S Se P 0
6-31g(d)
****
Au     0
S    1   1.00
      2.8090000              1.0000000
S    1   1.00
      1.5950000              1.0000000
S    1   1.00
      0.5327000              1.0000000
S    1   1.00
      0.2826000              1.0000000
S    1   1.00
      0.0598000              1.0000000
P    1   1.00
      3.6840000              1.0000000
P    1   1.00
      1.6660000              1.0000000
P    1   1.00
      0.5989000              1.0000000
P    1   1.00
      0.0977000              1.0000000
P    1   1.00
      0.0279000              1.0000000
D    1   1.00
      1.2870000              1.0000000
D    1   1.00
      0.4335000              1.0000000
D    1   1.00
      0.1396000              1.0000000
F    1   1.00
      1.0500000              1.0000000
****

AU     0
AU-ECP     4     60
g potential
  5
1    622.6287956            -60.0000000
2    136.2843607           -555.5292312
2     33.1549781           -168.0019785
2      9.9894895            -63.0399875
2      3.0481312             -4.2516681
s-g potential
  6
0    194.7374304              3.0000000
1    351.5327447             38.6020880
2    122.3270402            864.8370727
2     32.0914617            374.9935520
2      5.2451812            289.7910100
2      4.4916223           -152.4532773
p-g potential
  4
0    420.6158801              2.0000000
1    109.4417815             73.8885625
2     34.1714280            326.6729872
2      5.9879750            126.5814591
d-g potential
  5
0    219.2666158              3.0000000
1    122.7297786             55.6793149
2     63.1063369            449.1987335
2     18.3684520            215.0269091
2      4.4972844             64.0840995
f-g potential
  5
0    108.5506037              4.0000000
1     56.4795527             51.8065335
2     29.2069159            231.2183113
2      9.5440543            119.0047386
2      2.8965118             15.3424188

