%mem=30000MB
%nprocshared=8
# opt freq=noraman b3lyp/gen pseudo=read

Title Card Required

0 1
 Au                 2.50920900    0.89610000   -0.16056100
 P                  4.66432400   -0.05153100    0.34185800
 C                  6.05597800    0.46709500   -0.75689300
 H                  6.99686100    0.16766800   -0.27784400
 H                  6.03888500    1.56400000   -0.76685600
 C                  4.79901900   -1.88543300    0.52115700
 H                  5.83642700   -2.12236300    0.81071500
 H                  4.62286300   -2.32101100   -0.46822300
 C                  5.11152800    0.66094400    2.00679000
 H                  4.23430200    0.53105300    2.65267500
 H                  5.19504600    1.74492100    1.84637200
 C                  5.97489400   -0.07337200   -2.18865400
 H                  6.07567300   -1.16462300   -2.21481700
 H                  5.02441600    0.18503700   -2.67006000
 H                  6.78721700    0.34796500   -2.79115200
 C                  6.37911000    0.10521500    2.66250000
 H                  6.55307300    0.63844300    3.60658700
 H                  6.28022400   -0.95513900    2.90101900
 H                  7.26381400    0.24613500    2.04239200
 C                  3.80435200   -2.47149100    1.53571100
 H                  2.76980400   -2.24191500    1.25546000
 H                  3.90817400   -3.56240200    1.56235500
 H                  3.96583400   -2.08588500    2.54754900
 S                  1.99464600   -0.09469100   -2.48520300
 N                 -6.68537900   -3.00370300    0.21231600
 C                 -5.29946900   -2.71083500    0.59327000
 C                 -5.10433500   -1.21580400    0.89214400
 O                 -5.60507900   -0.38107700    0.13916100
 C                 -4.39562800   -3.13599700   -0.58472800
 O                 -3.01262200   -2.86508900   -0.37400000
 N                 -4.45838500   -0.80851000    2.03580100
 C                 -3.66357500   -1.59989000    2.95667900
 C                 -2.23613000   -1.94973900    2.47089600
 O                 -1.97104000   -3.12729300    2.17232800
 N                 -1.32216100   -0.95710100    2.39200800
 C                 -1.50808500    0.46028400    2.63756400
 C                 -2.16007200    1.25307800    1.48634200
 O                 -2.98645100    2.12437900    1.76667400
 C                 -0.17895000    1.14656800    3.10137300
 S                  1.51135200    0.52214200    2.50906900
 N                 -1.75952600    0.97598600    0.22597200
 C                 -1.89753100    1.96546300   -0.84783600
 C                 -0.53737500    2.45634900   -1.42776000
 C                 -2.73573100    1.34876500   -1.99087000
 O                 -2.21245500    0.56157400   -2.78747400
 N                 -4.03787700    1.70507000   -2.08854200
 C                 -4.84018100    2.43354300   -1.11754400
 C                 -6.29890600    2.15571600   -1.41327800
 O                 -6.71375300    1.52335500   -2.36985700
 O                 -7.10487700    2.72987400   -0.49970700
 H                 -4.58239600   -4.20043800   -0.78751800
 H                 -4.68655100   -2.56539600   -1.47172700
 H                 -2.72719900   -3.25448700    0.47324300
 H                 -5.04140800   -3.32961900    1.45459700
 H                 -6.98047500   -2.25706000   -0.42008400
 H                 -7.28143200   -2.93180700    1.02739600
 H                 -4.14663700   -2.56200100    3.16073500
 H                 -3.62182200   -1.05745800    3.90881400
 H                 -4.37612100    0.20167600    2.09946700
 H                 -0.12472500    0.96223100    4.20990200
 H                 -0.27957200    2.23857900    2.93730700
 H                 -2.21449600    0.59771300    3.46833700
 H                 -0.38294200   -1.22520600    2.09646300
 H                 -0.70042600    3.40788000   -1.96144200
 H                 -0.14271300    1.73973300   -2.15611500
 H                 -2.42287700    2.81018800   -0.39496100
 H                 -1.07788500    0.22571700    0.07117400
 H                 -4.69176500    3.52230800   -1.18636300
 H                 -4.62484300    2.13035300   -0.09085900
 H                 -4.57574800    1.21035800   -2.79619600
 H                 -8.01811200    2.50863600   -0.75257400
 Se                 0.78107900    2.64825400    0.02611500
 C                  1.73369900   -1.77370400   -2.13783600
 C                  2.76374000   -2.71813100   -2.39750600
 C                  0.49274000   -2.25660700   -1.57804700
 C                  2.64157900   -4.05352500   -2.07293500
 H                  3.67057200   -2.34813500   -2.87675100
 C                  0.40251600   -3.62735300   -1.21513800
 C                  1.44994800   -4.49694800   -1.45137900
 H                  3.43997100   -4.75409800   -2.28808800
 H                 -0.51953000   -3.98535100   -0.77502300
 H                  1.34418000   -5.54412100   -1.17936500
 N                 -0.57434100   -1.43431800   -1.36325700
 H                 -0.71079700   -0.64435200   -1.99630800
 H                 -1.45679300   -1.89942400   -1.13478800

C H N O S Se P 0
6-31g(d)
****
Au     0
S    1   1.00
      2.8090000              1.0000000
S    1   1.00
      1.5950000              1.0000000
S    1   1.00
      0.5327000              1.0000000
S    1   1.00
      0.2826000              1.0000000
S    1   1.00
      0.0598000              1.0000000
P    1   1.00
      3.6840000              1.0000000
P    1   1.00
      1.6660000              1.0000000
P    1   1.00
      0.5989000              1.0000000
P    1   1.00
      0.0977000              1.0000000
P    1   1.00
      0.0279000              1.0000000
D    1   1.00
      1.2870000              1.0000000
D    1   1.00
      0.4335000              1.0000000
D    1   1.00
      0.1396000              1.0000000
F    1   1.00
      1.0500000              1.0000000
****

AU     0
AU-ECP     4     60
g potential
  5
1    622.6287956            -60.0000000
2    136.2843607           -555.5292312
2     33.1549781           -168.0019785
2      9.9894895            -63.0399875
2      3.0481312             -4.2516681
s-g potential
  6
0    194.7374304              3.0000000
1    351.5327447             38.6020880
2    122.3270402            864.8370727
2     32.0914617            374.9935520
2      5.2451812            289.7910100
2      4.4916223           -152.4532773
p-g potential
  4
0    420.6158801              2.0000000
1    109.4417815             73.8885625
2     34.1714280            326.6729872
2      5.9879750            126.5814591
d-g potential
  5
0    219.2666158              3.0000000
1    122.7297786             55.6793149
2     63.1063369            449.1987335
2     18.3684520            215.0269091
2      4.4972844             64.0840995
f-g potential
  5
0    108.5506037              4.0000000
1     56.4795527             51.8065335
2     29.2069159            231.2183113
2      9.5440543            119.0047386
2      2.8965118             15.3424188

