%mem=30000MB
%nprocshared=8
# opt freq=noraman b3lyp/gen pseudo=read

af

0 1
Au       0.184417      -0.527289      -0.155755
S       -1.916203      -1.554681      -0.301412
P        2.304729       0.350676      -0.052726
C        2.747075       1.005897       1.596691
C        2.680482      -0.038862       2.706796
H        2.046699       1.823444       1.798503
H        3.747023       1.450320       1.529153
H        2.894124       0.426075       3.673930
H        1.686569      -0.495085       2.761715
H        3.411737      -0.839135       2.555396
C        3.565492      -0.907324      -0.476480
C        5.023565      -0.462161      -0.413455
H        3.304030      -1.254149      -1.482801
H        3.385483      -1.755762       0.192846
H        5.674558      -1.295907      -0.694526
H        5.228656       0.363269      -1.101245
H        5.311019      -0.146276       0.593878
C        2.577906       1.740749      -1.210368
C        1.547651       2.859230      -1.078484
H        2.547689       1.307420      -2.216621
H        3.592047       2.124029      -1.050546
H        1.739985       3.635675      -1.825214
H        0.532271       2.480788      -1.235310
H        1.584940       3.333019      -0.092790
C       -3.152464      -0.346420      -0.028947
C       -2.907243       1.004006       0.257033
C       -3.978469       1.864469       0.454709
H       -1.890408       1.378496       0.323808
C       -5.493862       0.210499       0.120339
H       -3.786792       2.913339       0.676718
H       -6.539083      -0.090871       0.069153
C       -4.500526      -0.733455      -0.093982
H       -4.769646      -1.762728      -0.310868
N       -5.262744       1.499263       0.392835

C H N S P 0
6-31g(d)
****
Au     0
S    1   1.00
      2.8090000              1.0000000
S    1   1.00
      1.5950000              1.0000000
S    1   1.00
      0.5327000              1.0000000
S    1   1.00
      0.2826000              1.0000000
S    1   1.00
      0.0598000              1.0000000
P    1   1.00
      3.6840000              1.0000000
P    1   1.00
      1.6660000              1.0000000
P    1   1.00
      0.5989000              1.0000000
P    1   1.00
      0.0977000              1.0000000
P    1   1.00
      0.0279000              1.0000000
D    1   1.00
      1.2870000              1.0000000
D    1   1.00
      0.4335000              1.0000000
D    1   1.00
      0.1396000              1.0000000
F    1   1.00
      1.0500000              1.0000000
****

AU     0
AU-ECP     4     60
g potential
  5
1    622.6287956            -60.0000000
2    136.2843607           -555.5292312
2     33.1549781           -168.0019785
2      9.9894895            -63.0399875
2      3.0481312             -4.2516681
s-g potential
  6
0    194.7374304              3.0000000
1    351.5327447             38.6020880
2    122.3270402            864.8370727
2     32.0914617            374.9935520
2      5.2451812            289.7910100
2      4.4916223           -152.4532773
p-g potential
  4
0    420.6158801              2.0000000
1    109.4417815             73.8885625
2     34.1714280            326.6729872
2      5.9879750            126.5814591
d-g potential
  5
0    219.2666158              3.0000000
1    122.7297786             55.6793149
2     63.1063369            449.1987335
2     18.3684520            215.0269091
2      4.4972844             64.0840995
f-g potential
  5
0    108.5506037              4.0000000
1     56.4795527             51.8065335
2     29.2069159            231.2183113
2      9.5440543            119.0047386
2      2.8965118             15.3424188

