%mem=30000MB
%nprocshared=8
# opt freq=noraman b3lyp/gen pseudo=read

Title Card Required

0 1
 Au                 2.06977200    0.34965800   -0.92434800
 P                  3.67039300    1.48461400    0.53013400
 C                  5.46782200    1.29958900    0.13269500
 H                  6.01175000    1.89640300    0.87474700
 H                  5.60898700    1.79652000   -0.84251800
 C                  3.45153300    1.08608200    2.31522600
 H                  4.19518600    1.66115000    2.87863000
 H                  3.67988800    0.01555300    2.39287500
 C                  3.36936900    3.31446800    0.35595500
 H                  2.29047100    3.47792100    0.43830700
 H                  3.61980800    3.56500500   -0.68218000
 C                  5.98804500   -0.13555100    0.07801700
 H                  5.81449100   -0.66455300    1.01881900
 H                  5.49690400   -0.70489700   -0.70968100
 H                  7.06505300   -0.12621700   -0.11493900
 C                  4.13563700    4.20890000    1.33251200
 H                  3.90529300    5.26232700    1.11674500
 H                  3.85767700    4.02238600    2.37372000
 H                  5.21911800    4.09553200    1.25124900
 C                  2.02983200    1.36150700    2.84201500
 H                  1.28472100    0.73223700    2.33141700
 H                  1.98484000    1.11231600    3.90594900
 H                  1.73583500    2.40079400    2.73034700
 S                  2.84184300   -2.02972300   -0.93157500
 N                 -4.82775700   -0.09223100    4.00681200
 C                 -3.96477300    0.61917700    3.05957400
 C                 -4.59628200    0.65717100    1.65804200
 O                 -5.11720900   -0.36918000    1.20251200
 C                 -2.60916200   -0.12910600    3.03897700
 O                 -1.60378900    0.49947700    2.25056200
 N                 -4.62679600    1.81867700    0.93045800
 C                 -4.06007400    3.11916900    1.25502500
 C                 -2.52608400    3.12379400    1.36306200
 O                 -1.99033900    3.30594300    2.46732100
 N                 -1.77549400    2.87840200    0.26151500
 C                 -2.15684900    2.55064200   -1.09883800
 C                 -2.71983800    1.13050800   -1.36763600
 O                 -3.53337900    0.99916500   -2.28091500
 C                 -0.93119900    2.76511900   -2.04626800
 S                  0.86846700    2.64927500   -1.39577600
 N                 -2.16563900    0.11195600   -0.67939800
 C                 -2.12057600   -1.23778700   -1.24510300
 C                 -0.68021500   -1.69548900   -1.58692900
 C                 -2.72615100   -2.23675400   -0.24259300
 O                 -2.08141900   -2.60090700    0.74563200
 N                 -3.96753100   -2.71487900   -0.50258700
 C                 -4.97051400   -2.12743800   -1.37105000
 C                 -6.34347400   -2.43352500   -0.81913100
 O                 -6.56393700   -3.19034000    0.09951500
 O                 -7.30096000   -1.79249900   -1.50572000
 H                 -2.28117100   -0.22230500    4.08808200
 H                 -2.74252600   -1.13130900    2.62530700
 H                 -1.47064700    1.40092100    2.59158000
 H                 -3.78899200    1.62882700    3.44453900
 H                 -5.15781400   -0.93022700    3.54401100
 H                 -5.66135000    0.47174500    4.19808500
 H                 -4.43467900    3.49492900    2.21589300
 H                 -4.38901800    3.81709000    0.47645300
 H                 -5.02283000    1.68685900    0.00703800
 H                 -0.92445900    3.84914000   -2.31439200
 H                 -1.07231100    2.17496300   -2.97217900
 H                 -2.94275500    3.23458400   -1.45656200
 H                 -0.76955000    2.86673600    0.42250200
 H                 -0.74691200   -2.65167700   -2.13972900
 H                 -0.14107600   -1.91566000   -0.66894200
 H                 -2.72154100   -1.18552100   -2.14983300
 H                 -1.67547400    0.29129700    0.20403200
 H                 -4.91997500   -2.52936600   -2.39064800
 H                 -4.85827300   -1.04283800   -1.45566200
 H                 -4.36171000   -3.27978000    0.24522100
 H                 -8.15724300   -2.06143800   -1.10091300
 Se                 0.32213300   -0.34470700   -2.61400500
 C                  3.29765300   -2.74315100    0.61836800
 S                  3.38049700   -4.56996000    0.62775000
 C                  3.77344400   -3.07471900    2.81363500
 C                  4.20100900   -4.45682700    2.26747800
 H                  4.53013000   -2.68001500    3.50410800
 H                  5.28675500   -4.52044200    2.14218300
 H                  3.87073200   -5.28287700    2.90709100
 H                  2.83792500   -3.16632400    3.37697600
 N                  3.56389800   -2.14382900    1.71378600

C H N O S Se P 0
6-31g(d)
****
Au     0
S    1   1.00
      2.8090000              1.0000000
S    1   1.00
      1.5950000              1.0000000
S    1   1.00
      0.5327000              1.0000000
S    1   1.00
      0.2826000              1.0000000
S    1   1.00
      0.0598000              1.0000000
P    1   1.00
      3.6840000              1.0000000
P    1   1.00
      1.6660000              1.0000000
P    1   1.00
      0.5989000              1.0000000
P    1   1.00
      0.0977000              1.0000000
P    1   1.00
      0.0279000              1.0000000
D    1   1.00
      1.2870000              1.0000000
D    1   1.00
      0.4335000              1.0000000
D    1   1.00
      0.1396000              1.0000000
F    1   1.00
      1.0500000              1.0000000
****

AU     0
AU-ECP     4     60
g potential
  5
1    622.6287956            -60.0000000
2    136.2843607           -555.5292312
2     33.1549781           -168.0019785
2      9.9894895            -63.0399875
2      3.0481312             -4.2516681
s-g potential
  6
0    194.7374304              3.0000000
1    351.5327447             38.6020880
2    122.3270402            864.8370727
2     32.0914617            374.9935520
2      5.2451812            289.7910100
2      4.4916223           -152.4532773
p-g potential
  4
0    420.6158801              2.0000000
1    109.4417815             73.8885625
2     34.1714280            326.6729872
2      5.9879750            126.5814591
d-g potential
  5
0    219.2666158              3.0000000
1    122.7297786             55.6793149
2     63.1063369            449.1987335
2     18.3684520            215.0269091
2      4.4972844             64.0840995
f-g potential
  5
0    108.5506037              4.0000000
1     56.4795527             51.8065335
2     29.2069159            231.2183113
2      9.5440543            119.0047386
2      2.8965118             15.3424188

