%mem=30000MB
%nprocshared=15
%chk=au-1to3-ts-2-af23-c-term-level3-freq-se-new.chk
# opt=(ts,readfc,noeigentest) freq=noraman b3lyp/gen pseudo=read

Title Card Required

0 1
Au     2.092534     0.034536    -0.625229
 P     2.761119     2.036670     0.446471
 C     4.276060     2.840139    -0.260900
 H     4.597875     3.627548     0.433946
 H     3.955574     3.338624    -1.184168
 C     3.110817     1.742585     2.237462
 H     3.459076     2.683925     2.682770
 H     3.932757     1.015506     2.258694
 C     1.458779     3.358008     0.391890
 H     0.567219     2.920063     0.855354
 H     1.207765     3.502422    -0.665776
 C     5.426797     1.870757    -0.552805
 H     5.727934     1.317493     0.344275
 H     5.135236     1.130744    -1.308013
 H     6.296548     2.426443    -0.928828
 C     1.806266     4.698704     1.052339
 H     0.944205     5.375405     0.992148
 H     2.058859     4.579564     2.113059
 H     2.650385     5.192293     0.555650
 C     1.907870     1.171096     3.005097
 H     1.618541     0.194215     2.605253
 H     2.174164     1.029397     4.059698
 H     1.027552     1.822988     2.969557
 S     3.344739    -2.044179    -0.102242
 N    -5.477430     1.542671     3.315690
 C    -4.581086     1.748643     2.173568
 C    -5.037772     0.908825     0.962588
 O    -5.358590    -0.266939     1.122599
 C    -3.159177     1.338171     2.631360
 O    -2.138548     1.586190     1.662404
 N    -5.130027     1.475679    -0.286297
 C    -4.758132     2.819517    -0.711681
 C    -3.255720     3.106891    -0.580114
 O    -2.850861     3.931123     0.247578
 N    -2.386673     2.403830    -1.347895
 C    -2.628963     1.343315    -2.310040
 C    -2.943423    -0.058834    -1.756729
 O    -3.582171    -0.835673    -2.469535
 C    -1.377220     1.189794    -3.219868
 S     0.259655     1.222938    -2.356721
 N    -2.354654    -0.401907    -0.585415
 C    -2.046138    -1.797945    -0.300389
 C    -0.526939    -2.008929    -0.300229
 C    -2.603198    -2.194409     1.085016
 O    -2.009954    -1.857782     2.106666
 N    -3.737331    -2.943726     1.114734
 C    -4.704290    -3.116618     0.046120
 C    -6.078891    -3.295549     0.662135
 O    -6.298993    -3.440888     1.843717
 O    -7.038326    -3.318978    -0.284471
 H    -2.956542     1.878162     3.564734
 H    -3.125540     0.265673     2.835857
 H    -2.153474     2.539073     1.452841
 H    -4.568458     2.817116     1.935387
 H    -5.649565     0.539492     3.395452
 H    -6.384765     1.966048     3.123936
 H    -5.268558     3.585192    -0.121349
 H    -5.084137     2.930309    -1.751010
 H    -5.424071     0.816291    -0.998712
 H    -1.311125     2.060387    -3.885021
 H    -1.480570     0.289899    -3.829421
 H    -3.469428     1.605827    -2.961687
 H    -1.406248     2.574729    -1.130743
 H    -0.269684    -3.071836    -0.218262
 H    -0.071354    -1.495634     0.546652
 H    -2.508053    -2.380432    -1.098498
 H    -2.018810     0.314661     0.062584
 H    -4.497094    -4.011664    -0.559721
 H    -4.732818    -2.262611    -0.634111
 H    -4.122008    -3.081672     2.045993
 H    -7.882790    -3.460309     0.184037
Se     0.391255    -1.437408    -1.987422
 C     4.826983    -1.797491     0.807394
 S     6.128297    -3.030993     0.478779
 C     6.409672    -1.010151     2.275646
 C     7.236024    -2.204229     1.685457
 H     6.958264    -0.066917     2.139966
 H     8.136342    -1.858766     1.173319
 H     7.531931    -2.917720     2.459645
 H     6.275871    -1.142798     3.356954
 N     5.092666    -0.883696     1.661653

C H N O S Se P 0
6-31g(d)
****
Au     0
S    1   1.00
      2.8090000              1.0000000
S    1   1.00
      1.5950000              1.0000000
S    1   1.00
      0.5327000              1.0000000
S    1   1.00
      0.2826000              1.0000000
S    1   1.00
      0.0598000              1.0000000
P    1   1.00
      3.6840000              1.0000000
P    1   1.00
      1.6660000              1.0000000
P    1   1.00
      0.5989000              1.0000000
P    1   1.00
      0.0977000              1.0000000
P    1   1.00
      0.0279000              1.0000000
D    1   1.00
      1.2870000              1.0000000
D    1   1.00
      0.4335000              1.0000000
D    1   1.00
      0.1396000              1.0000000
F    1   1.00
      1.0500000              1.0000000
****

AU     0
AU-ECP     4     60
g potential
  5
1    622.6287956            -60.0000000
2    136.2843607           -555.5292312
2     33.1549781           -168.0019785
2      9.9894895            -63.0399875
2      3.0481312             -4.2516681
s-g potential
  6
0    194.7374304              3.0000000
1    351.5327447             38.6020880
2    122.3270402            864.8370727
2     32.0914617            374.9935520
2      5.2451812            289.7910100
2      4.4916223           -152.4532773
p-g potential
  4
0    420.6158801              2.0000000
1    109.4417815             73.8885625
2     34.1714280            326.6729872
2      5.9879750            126.5814591
d-g potential
  5
0    219.2666158              3.0000000
1    122.7297786             55.6793149
2     63.1063369            449.1987335
2     18.3684520            215.0269091
2      4.4972844             64.0840995
f-g potential
  5
0    108.5506037              4.0000000
1     56.4795527             51.8065335
2     29.2069159            231.2183113
2      9.5440543            119.0047386
2      2.8965118             15.3424188

