%mem=30000MB
%nprocshared=8
# opt freq=noraman b3lyp/gen pseudo=read

af

0 1
Au       0.128983      -0.564544       0.005740
S       -1.963301      -1.622195      -0.093744
P        2.217877       0.384304       0.095985
C        2.660904       1.036573       1.746606
C        2.491523       0.021984       2.874293
H        2.015428       1.906768       1.911778
H        3.693448       1.401226       1.702376
H        2.725322       0.488707       3.836003
H        1.463142      -0.351233       2.917316
H        3.159468      -0.836196       2.752659
C        3.547562      -0.797087      -0.330886
C        3.410338      -1.391775      -1.729464
H        3.507555      -1.587175       0.426458
H        4.509816      -0.285964      -0.209547
H        4.198618      -2.130590      -1.902421
H        2.443719      -1.890885      -1.853643
H        3.497860      -0.626011      -2.506624
C        2.378337       1.799028      -1.055274
C        3.742572       2.480191      -1.111165
H        1.597175       2.508142      -0.758084
H        2.087221       1.422243      -2.041986
H        3.712459       3.302941      -1.832340
H        4.029479       2.900790      -0.143072
H        4.530849       1.792162      -1.431170
C       -3.141202      -0.336554      -0.083529
C       -5.164592       0.688730      -0.189125
C       -4.299014       1.902176       0.185825
H       -5.496892       0.764265      -1.234919
H       -6.064046       0.650280       0.434067
H       -4.545251       2.789425      -0.399937
H       -4.370547       2.142377       1.250128
N       -4.400010      -0.538935      -0.042236
S       -2.606146       1.361328      -0.178651

C H N S P 0
6-31g(d)
****
Au     0
S    1   1.00
      2.8090000              1.0000000
S    1   1.00
      1.5950000              1.0000000
S    1   1.00
      0.5327000              1.0000000
S    1   1.00
      0.2826000              1.0000000
S    1   1.00
      0.0598000              1.0000000
P    1   1.00
      3.6840000              1.0000000
P    1   1.00
      1.6660000              1.0000000
P    1   1.00
      0.5989000              1.0000000
P    1   1.00
      0.0977000              1.0000000
P    1   1.00
      0.0279000              1.0000000
D    1   1.00
      1.2870000              1.0000000
D    1   1.00
      0.4335000              1.0000000
D    1   1.00
      0.1396000              1.0000000
F    1   1.00
      1.0500000              1.0000000
****

AU     0
AU-ECP     4     60
g potential
  5
1    622.6287956            -60.0000000
2    136.2843607           -555.5292312
2     33.1549781           -168.0019785
2      9.9894895            -63.0399875
2      3.0481312             -4.2516681
s-g potential
  6
0    194.7374304              3.0000000
1    351.5327447             38.6020880
2    122.3270402            864.8370727
2     32.0914617            374.9935520
2      5.2451812            289.7910100
2      4.4916223           -152.4532773
p-g potential
  4
0    420.6158801              2.0000000
1    109.4417815             73.8885625
2     34.1714280            326.6729872
2      5.9879750            126.5814591
d-g potential
  5
0    219.2666158              3.0000000
1    122.7297786             55.6793149
2     63.1063369            449.1987335
2     18.3684520            215.0269091
2      4.4972844             64.0840995
f-g potential
  5
0    108.5506037              4.0000000
1     56.4795527             51.8065335
2     29.2069159            231.2183113
2      9.5440543            119.0047386
2      2.8965118             15.3424188

