%mem=30000MB
%nprocshared=8
# opt freq=noraman b3lyp/gen pseudo=read

af

0 1
Au       0.810597      -0.639106       0.016634
S       -1.082119      -2.031919       0.008836
P        2.708338       0.645241       0.032383
C        2.725177       1.902336       1.361204
C        2.459746       1.333128       2.752275
H        1.956703       2.636408       1.093239
H        3.692357       2.416574       1.329055
H        2.442366       2.141470       3.489663
H        1.495277       0.816368       2.790440
H        3.236349       0.625076       3.057190
C        4.231612      -0.335490       0.280516
C        4.453874      -1.406097      -0.783999
H        4.139865      -0.795256       1.270378
H        5.078249       0.359399       0.327226
H        5.352746      -1.985126      -0.551540
H        3.607170      -2.098661      -0.831162
H        4.589641      -0.968913      -1.778209
C        2.926458       1.574366      -1.530615
C        4.179819       2.437883      -1.641493
H        2.020304       2.181557      -1.637937
H        2.889949       0.830572      -2.334186
H        4.195614       2.938512      -2.614695
H        4.211075       3.213730      -0.871191
H        5.094929       1.843153      -1.563609
C       -2.408001      -0.911453      -0.036052
N       -2.362996       0.406533      -0.091195
C       -4.542086      -0.305388      -0.063338
C       -3.683316       0.815234      -0.109264
C       -5.927717      -0.191106      -0.070246
C       -4.227487       2.100415      -0.163787
C       -6.450264       1.098571      -0.124831
H       -6.573695      -1.062899      -0.034584
C       -5.613152       2.224943      -0.170945
H       -3.582639       2.973826      -0.199606
H       -7.527709       1.234921      -0.131925
H       -6.059767       3.214301      -0.213043
N       -3.694290      -1.386432      -0.017190
H       -3.954115      -2.358287       0.025431

C H N S P 0
6-31g(d)
****
Au     0
S    1   1.00
      2.8090000              1.0000000
S    1   1.00
      1.5950000              1.0000000
S    1   1.00
      0.5327000              1.0000000
S    1   1.00
      0.2826000              1.0000000
S    1   1.00
      0.0598000              1.0000000
P    1   1.00
      3.6840000              1.0000000
P    1   1.00
      1.6660000              1.0000000
P    1   1.00
      0.5989000              1.0000000
P    1   1.00
      0.0977000              1.0000000
P    1   1.00
      0.0279000              1.0000000
D    1   1.00
      1.2870000              1.0000000
D    1   1.00
      0.4335000              1.0000000
D    1   1.00
      0.1396000              1.0000000
F    1   1.00
      1.0500000              1.0000000
****

AU     0
AU-ECP     4     60
g potential
  5
1    622.6287956            -60.0000000
2    136.2843607           -555.5292312
2     33.1549781           -168.0019785
2      9.9894895            -63.0399875
2      3.0481312             -4.2516681
s-g potential
  6
0    194.7374304              3.0000000
1    351.5327447             38.6020880
2    122.3270402            864.8370727
2     32.0914617            374.9935520
2      5.2451812            289.7910100
2      4.4916223           -152.4532773
p-g potential
  4
0    420.6158801              2.0000000
1    109.4417815             73.8885625
2     34.1714280            326.6729872
2      5.9879750            126.5814591
d-g potential
  5
0    219.2666158              3.0000000
1    122.7297786             55.6793149
2     63.1063369            449.1987335
2     18.3684520            215.0269091
2      4.4972844             64.0840995
f-g potential
  5
0    108.5506037              4.0000000
1     56.4795527             51.8065335
2     29.2069159            231.2183113
2      9.5440543            119.0047386
2      2.8965118             15.3424188

