%mem=30000MB
%nprocshared=15
%chk=au-1to3-ts-2-af24-c-term-level3-freq-se-new.chk
# opt=(ts,readfc,noeigentest) freq=noraman b3lyp/gen pseudo=read

Title Card Required

0 1
Au    -1.692079    -0.554228    -1.025105
 P    -2.538717    -1.846548     0.768551
 C    -3.710133    -3.180467     0.227628
 H    -4.245906    -3.541455     1.115922
 H    -3.092808    -4.013092    -0.135010
 C    -3.485268    -0.850839     2.009027
 H    -3.866169    -1.538522     2.775177
 H    -4.349689    -0.444945     1.474155
 C    -1.201928    -2.711744     1.720608
 H    -0.516000    -1.930530     2.069647
 H    -0.644899    -3.297890     0.979676
 C    -4.693729    -2.729296    -0.864322
 H    -5.242783    -1.822145    -0.588086
 H    -4.162712    -2.507957    -1.797593
 H    -5.417916    -3.527436    -1.064838
 C    -1.651505    -3.603990     2.885567
 H    -0.777012    -4.078031     3.345562
 H    -2.163891    -3.030358     3.665260
 H    -2.325129    -4.401561     2.553676
 C    -2.672087     0.282733     2.648370
 H    -2.289473     0.973047     1.889688
 H    -3.308579     0.855372     3.331535
 H    -1.818852    -0.094210     3.223094
 S    -2.938234     1.489970    -1.681563
 N     4.971943     0.445708     4.194884
 C     4.289653    -0.330304     3.155069
 C     4.980779    -0.137812     1.789799
 O     5.310699     0.990196     1.429142
 C     2.821780     0.163473     3.112931
 O     1.977911    -0.579079     2.231116
 N     5.266440    -1.218186     0.990721
 C     4.940380    -2.624129     1.196811
 C     3.431512    -2.904935     1.210452
 O     2.875008    -3.253352     2.258322
 N     2.719402    -2.707657     0.074806
 C     3.139748    -2.227693    -1.229066
 C     3.395573    -0.715874    -1.379240
 O     4.158778    -0.342167    -2.270690
 C     2.058580    -2.609858    -2.280895
 S     0.298293    -2.355891    -1.774933
 N     2.650267     0.117601    -0.612865
 C     2.339089     1.462254    -1.083593
 C     0.849267     1.568723    -1.432238
 C     2.667462     2.500442     0.012226
 O     1.896778     2.670052     0.954154
 N     3.810149     3.222980    -0.128591
 C     4.946972     2.912315    -0.975049
 C     6.202899     3.438390    -0.306368
 O     6.224668     4.141432     0.679003
 O     7.308382     3.057856    -0.976728
 H     2.445650     0.126882     4.142671
 H     2.783719     1.198381     2.765069
 H     2.012230    -1.515501     2.504074
 H     4.286678    -1.382849     3.456112
 H     5.165924     1.371195     3.809815
 H     5.881301     0.031839     4.395191
 H     5.328288    -2.992174     2.150293
 H     5.432205    -3.188971     0.398629
 H     5.699182    -0.955965     0.111923
 H     2.101646    -3.692392    -2.456739
 H     2.269507    -2.092530    -3.218954
 H     4.070105    -2.719120    -1.533641
 H     1.712738    -2.815314     0.186520
 H     0.627418     2.509255    -1.949545
 H     0.243309     1.541078    -0.527921
 H     2.947096     1.617071    -1.975523
 H     2.178607    -0.226075     0.225777
 H     4.872932     3.392332    -1.962344
 H     5.063378     1.838945    -1.142258
 H     4.039758     3.803041     0.674559
 H     8.065798     3.448625    -0.501142
Se     0.198989     0.165183    -2.705239
 C    -4.301765     1.700893    -0.607684
 C    -6.165180     1.543025     0.468522
 C    -5.542984     2.724512     0.953344
 H    -3.643067     3.502055     0.310556
 C    -7.414922     1.159594     0.977055
 C    -6.124133     3.528400     1.937094
 C    -8.001004     1.958748     1.953939
 H    -7.904948     0.266565     0.600854
 C    -7.362889     3.122679     2.431257
 H    -5.636989     4.426494     2.306524
 H    -8.970659     1.683984     2.360552
 H    -7.849229     3.718829     3.198753
 N    -5.375140     0.933478    -0.490623
 N    -4.358363     2.793195     0.249861

C H N O S Se P 0
6-31g(d)
****
Au     0
S    1   1.00
      2.8090000              1.0000000
S    1   1.00
      1.5950000              1.0000000
S    1   1.00
      0.5327000              1.0000000
S    1   1.00
      0.2826000              1.0000000
S    1   1.00
      0.0598000              1.0000000
P    1   1.00
      3.6840000              1.0000000
P    1   1.00
      1.6660000              1.0000000
P    1   1.00
      0.5989000              1.0000000
P    1   1.00
      0.0977000              1.0000000
P    1   1.00
      0.0279000              1.0000000
D    1   1.00
      1.2870000              1.0000000
D    1   1.00
      0.4335000              1.0000000
D    1   1.00
      0.1396000              1.0000000
F    1   1.00
      1.0500000              1.0000000
****

AU     0
AU-ECP     4     60
g potential
  5
1    622.6287956            -60.0000000
2    136.2843607           -555.5292312
2     33.1549781           -168.0019785
2      9.9894895            -63.0399875
2      3.0481312             -4.2516681
s-g potential
  6
0    194.7374304              3.0000000
1    351.5327447             38.6020880
2    122.3270402            864.8370727
2     32.0914617            374.9935520
2      5.2451812            289.7910100
2      4.4916223           -152.4532773
p-g potential
  4
0    420.6158801              2.0000000
1    109.4417815             73.8885625
2     34.1714280            326.6729872
2      5.9879750            126.5814591
d-g potential
  5
0    219.2666158              3.0000000
1    122.7297786             55.6793149
2     63.1063369            449.1987335
2     18.3684520            215.0269091
2      4.4972844             64.0840995
f-g potential
  5
0    108.5506037              4.0000000
1     56.4795527             51.8065335
2     29.2069159            231.2183113
2      9.5440543            119.0047386
2      2.8965118             15.3424188

