%mem=30000MB
%nprocshared=8
# opt freq=noraman b3lyp/gen pseudo=read

Title Card Required

0 1
Au       0.766712      -0.667598       0.018844
S       -1.080730      -2.123249       0.005597
P        2.631691       0.664699       0.033775
C        2.618035       1.927376       1.356596
C        2.358829       1.360477       2.749755
H        1.837191       2.645807       1.082188
H        3.575624       2.459285       1.324818
H        2.327716       2.172218       3.482917
H        1.402379       0.829208       2.789117
H        3.145749       0.666098       3.059479
C        4.174890      -0.282908       0.287372
C        4.418578      -1.354796      -0.770964
H        4.092844      -0.738104       1.280190
H        5.006820       0.429835       0.329383
H        5.329164      -1.913861      -0.535330
H        3.586303      -2.064865      -0.813691
H        4.545257      -0.920695      -1.767680
C        2.827535       1.589024      -1.534545
C        4.058639       2.483590      -1.648854
H        1.906518       2.172498      -1.646682
H        2.811037       0.839441      -2.333357
H        4.062949       2.978139      -2.625242
H        4.068504       3.264835      -0.883479
H        4.988570       1.913047      -1.565911
C       -2.466021      -1.101557      -0.034925
C       -4.447163      -0.318695      -0.074874
C       -3.563405       0.763542      -0.100689
C       -5.821256      -0.088047      -0.092962
C       -3.957909       2.086172      -0.144454
C       -6.246639       1.238385      -0.136737
H       -6.529767      -0.910222      -0.073481
C       -5.337116       2.304480      -0.162189
H       -3.244367       2.902836      -0.163874
H       -7.310962       1.454049      -0.151811
H       -5.711161       3.323094      -0.196473
N       -3.709211      -1.493234      -0.032942
O       -2.297730       0.256187      -0.075071

C H N O S P 0
6-31g(d)
****
Au     0
S    1   1.00
      2.8090000              1.0000000
S    1   1.00
      1.5950000              1.0000000
S    1   1.00
      0.5327000              1.0000000
S    1   1.00
      0.2826000              1.0000000
S    1   1.00
      0.0598000              1.0000000
P    1   1.00
      3.6840000              1.0000000
P    1   1.00
      1.6660000              1.0000000
P    1   1.00
      0.5989000              1.0000000
P    1   1.00
      0.0977000              1.0000000
P    1   1.00
      0.0279000              1.0000000
D    1   1.00
      1.2870000              1.0000000
D    1   1.00
      0.4335000              1.0000000
D    1   1.00
      0.1396000              1.0000000
F    1   1.00
      1.0500000              1.0000000
****

AU     0
AU-ECP     4     60
g potential
  5
1    622.6287956            -60.0000000
2    136.2843607           -555.5292312
2     33.1549781           -168.0019785
2      9.9894895            -63.0399875
2      3.0481312             -4.2516681
s-g potential
  6
0    194.7374304              3.0000000
1    351.5327447             38.6020880
2    122.3270402            864.8370727
2     32.0914617            374.9935520
2      5.2451812            289.7910100
2      4.4916223           -152.4532773
p-g potential
  4
0    420.6158801              2.0000000
1    109.4417815             73.8885625
2     34.1714280            326.6729872
2      5.9879750            126.5814591
d-g potential
  5
0    219.2666158              3.0000000
1    122.7297786             55.6793149
2     63.1063369            449.1987335
2     18.3684520            215.0269091
2      4.4972844             64.0840995
f-g potential
  5
0    108.5506037              4.0000000
1     56.4795527             51.8065335
2     29.2069159            231.2183113
2      9.5440543            119.0047386
2      2.8965118             15.3424188

