%mem=30000MB
%nprocshared=15
%chk=au-1to3-ts-2-af25-c-term-level3-freq-se-new.chk
# opt=(ts,readfc,noeigentest) freq=noraman b3lyp/gen pseudo=read

Title Card Required

0 1
Au    -1.675939    -0.359955    -1.034116
 P    -2.496184    -1.852915     0.609768
 C    -3.632743    -3.154472    -0.067626
 H    -4.043498    -3.728399     0.773323
 H    -3.004439    -3.839885    -0.650563
 C    -3.455799    -1.026309     1.961479
 H    -3.840794    -1.811048     2.625843
 H    -4.323474    -0.551961     1.491330
 C    -1.133575    -2.785536     1.457588
 H    -0.438216    -2.031631     1.845835
 H    -0.598733    -3.314111     0.659421
 C    -4.760798    -2.594076    -0.947298
 H    -5.396142    -1.888146    -0.402375
 H    -4.358167    -2.069038    -1.820039
 H    -5.397889    -3.411271    -1.304149
 C    -1.548923    -3.764694     2.564405
 H    -0.656813    -4.254442     2.971733
 H    -2.054807    -3.255079     3.391681
 H    -2.215984    -4.549722     2.190504
 C    -2.648784     0.015142     2.748671
 H    -2.297254     0.821457     2.096987
 H    -3.286376     0.469432     3.514611
 H    -1.783240    -0.431124     3.252328
 S    -2.899647     1.770133    -1.391671
 N     5.040134    -0.085678     4.163208
 C     4.328339    -0.748802     3.067026
 C     4.969465    -0.396230     1.709007
 O     5.279132     0.769036     1.468942
 C     2.856940    -0.265741     3.134215
 O     1.993033    -0.875635     2.174995
 N     5.242928    -1.374029     0.781289
 C     4.930450    -2.798479     0.818202
 C     3.425482    -3.104377     0.801724
 O     2.889697    -3.633917     1.784105
 N     2.696894    -2.742291    -0.283047
 C     3.105509    -2.083139    -1.510527
 C     3.382502    -0.568835    -1.456248
 O     4.165700    -0.094489    -2.279675
 C     2.012717    -2.300655    -2.597483
 S     0.255962    -2.085326    -2.064002
 N     2.627319     0.170873    -0.609293
 C     2.355867     1.572486    -0.908340
 C     0.871074     1.765493    -1.243963
 C     2.709403     2.453011     0.310702
 O     1.962658     2.481805     1.285224
 N     3.844577     3.198782     0.241278
 C     4.969183     3.003233    -0.654787
 C     6.233668     3.452279     0.053308
 O     6.270288     4.015034     1.124539
 O     7.328516     3.179318    -0.684165
 H     2.507717    -0.452848     4.157578
 H     2.804428     0.807667     2.938056
 H     2.030950    -1.842355     2.309221
 H     4.346594    -1.828607     3.248915
 H     5.199893     0.883598     3.883800
 H     5.965061    -0.497991     4.277869
 H     5.327417    -3.275302     1.718265
 H     5.424316    -3.257919    -0.044290
 H     5.641230    -1.001232    -0.073708
 H     2.034838    -3.350691    -2.916799
 H     2.231607    -1.667396    -3.459615
 H     4.026430    -2.537739    -1.892077
 H     1.691765    -2.863806    -0.174019
 H     0.681121     2.762969    -1.657088
 H     0.258929     1.659881    -0.349062
 H     2.971925     1.819898    -1.773257
 H     2.149554    -0.264270     0.180868
 H     4.876990     3.598019    -1.575641
 H     5.090638     1.958256    -0.950894
 H     4.086592     3.668700     1.110213
 H     8.092111     3.510930    -0.174690
Se     0.179999     0.533665    -2.669194
 C    -4.200614     1.878724    -0.256897
 C    -6.246441     1.522689     0.441882
 C    -5.550018     2.347752     1.340890
 C    -7.566987     1.130486     0.623237
 C    -6.188972     2.817115     2.495697
 C    -8.193797     1.611548     1.776468
 H    -8.080729     0.498708    -0.095274
 C    -7.516119     2.438974     2.694885
 H    -5.663067     3.461089     3.194767
 H    -9.229900     1.345997     1.967423
 H    -8.047267     2.793173     3.574784
 N    -4.264675     2.556280     0.858031
 O    -5.395876     1.217825    -0.582382

C H N O S Se P 0
6-31g(d)
****
Au     0
S    1   1.00
      2.8090000              1.0000000
S    1   1.00
      1.5950000              1.0000000
S    1   1.00
      0.5327000              1.0000000
S    1   1.00
      0.2826000              1.0000000
S    1   1.00
      0.0598000              1.0000000
P    1   1.00
      3.6840000              1.0000000
P    1   1.00
      1.6660000              1.0000000
P    1   1.00
      0.5989000              1.0000000
P    1   1.00
      0.0977000              1.0000000
P    1   1.00
      0.0279000              1.0000000
D    1   1.00
      1.2870000              1.0000000
D    1   1.00
      0.4335000              1.0000000
D    1   1.00
      0.1396000              1.0000000
F    1   1.00
      1.0500000              1.0000000
****

AU     0
AU-ECP     4     60
g potential
  5
1    622.6287956            -60.0000000
2    136.2843607           -555.5292312
2     33.1549781           -168.0019785
2      9.9894895            -63.0399875
2      3.0481312             -4.2516681
s-g potential
  6
0    194.7374304              3.0000000
1    351.5327447             38.6020880
2    122.3270402            864.8370727
2     32.0914617            374.9935520
2      5.2451812            289.7910100
2      4.4916223           -152.4532773
p-g potential
  4
0    420.6158801              2.0000000
1    109.4417815             73.8885625
2     34.1714280            326.6729872
2      5.9879750            126.5814591
d-g potential
  5
0    219.2666158              3.0000000
1    122.7297786             55.6793149
2     63.1063369            449.1987335
2     18.3684520            215.0269091
2      4.4972844             64.0840995
f-g potential
  5
0    108.5506037              4.0000000
1     56.4795527             51.8065335
2     29.2069159            231.2183113
2      9.5440543            119.0047386
2      2.8965118             15.3424188

