%mem=30000MB
%nprocshared=8
%chk=au-1to3-ts-2-af11-cterm-se-ts.chk
# opt=(ts,readfc,noeigentest) freq=noraman b3lyp/gen pseudo=read

Title Card Required

0 1
 Au                -2.52422200   -0.57386500   -0.02534500
 P                 -3.36231200   -2.54720200    1.00420400
 C                 -4.33863500   -3.64400500   -0.13016200
 H                 -4.75396100   -4.47042000    0.45945600
 H                 -3.61871700   -4.07942400   -0.83458300
 C                 -4.51876900   -2.13572400    2.39280900
 H                 -4.90859700   -3.06982200    2.81809500
 H                 -5.35943200   -1.60518300    1.93099500
 C                 -2.03973800   -3.63719700    1.71966300
 H                 -1.50041000   -3.01970500    2.44775600
 H                 -1.33072500   -3.82343600    0.90322400
 C                 -5.45121400   -2.91158900   -0.89330400
 H                 -6.19801200   -2.48807800   -0.21450900
 H                 -5.05069200   -2.09218700   -1.49841600
 H                 -5.96802600   -3.60922300   -1.56148800
 C                 -2.49196100   -4.95658000    2.36056400
 H                 -1.62581800   -5.48627000    2.77274800
 H                 -3.19710200   -4.79137900    3.18228100
 H                 -2.96842500   -5.62204100    1.63353600
 C                 -3.88442400   -1.25333200    3.47638200
 H                 -3.56807700   -0.29179600    3.06034700
 H                 -4.61344700   -1.05533400    4.26964500
 H                 -3.01521800   -1.73300200    3.93955600
 S                 -4.64481500    0.76811200   -0.10298600
 C                 -4.18159600    2.55445500   -0.10445000
 C                 -5.05221800    3.34003000   -1.08800700
 H                 -3.13149200    2.62992600   -0.41988200
 H                 -6.11298900    3.13626900   -0.93628000
 N                  8.37680900   -0.97498000    0.07698500
 C                  6.98543500   -1.33224200   -0.21333600
 C                  6.21545200   -0.14763600   -0.81925600
 O                  6.29103200    0.95831900   -0.28172000
 C                  6.30688600   -1.73564900    1.11414300
 O                  4.93237500   -2.04559800    0.96848200
 N                  5.49115400   -0.29839400   -1.97288800
 C                  5.18948600   -1.53107200   -2.68807600
 C                  4.18585000   -2.45163100   -1.96949300
 O                  4.55417400   -3.51820200   -1.47690700
 N                  2.88631900   -2.04659800   -1.89097900
 C                  2.30775500   -0.79994500   -2.37460700
 C                  2.55380400    0.43223600   -1.47669900
 O                  2.83353000    1.51679500   -1.98172400
 C                  0.79209600   -0.97722000   -2.62901000
 S                 -0.20464700   -1.41341200   -1.12265000
 N                  2.39395400    0.22595600   -0.14127000
 C                  1.93231200    1.28732300    0.74701600
 C                  0.42334800    1.14594700    1.01261300
 C                  2.68332500    1.15443000    2.09301900
 O                  2.25391900    0.39399000    2.95645600
 N                  3.81686700    1.87992600    2.25115100
 C                  4.48041500    2.73929800    1.28755600
 C                  5.84322000    3.10636800    1.83942200
 O                  6.32586100    2.65704700    2.85635500
 O                  6.45320000    4.02228200    1.06583900
 H                  6.88134400   -2.56569700    1.54793700
 H                  6.36019300   -0.88628000    1.80298400
 H                  4.86325200   -2.84768000    0.42088900
 H                  6.98360600   -2.20067700   -0.87907500
 H                  8.36910300   -0.05744100    0.52377000
 H                  8.89497800   -0.85808000   -0.79271300
 H                  6.09050200   -2.12877100   -2.83637700
 H                  4.81904100   -1.25013100   -3.67928400
 H                  4.97529500    0.53773300   -2.23493000
 H                  0.64426800   -1.80771300   -3.32819000
 H                  0.39660500   -0.06711200   -3.08229600
 H                  2.75357000   -0.54338000   -3.34090500
 H                  2.29103100   -2.67060400   -1.35441000
 H                  0.05137600    1.98549800    1.60793800
 H                  0.21960600    0.23573900    1.57721600
 H                  2.15077000    2.22931100    0.24110000
 H                  2.15276600   -0.71155400    0.15643400
 H                  3.92294300    3.66770300    1.10517700
 H                  4.65575100    2.24962400    0.32360100
 H                  4.35758100    1.67119400    3.08598700
 H                  7.32756200    4.18190700    1.46815400
 Se                -0.68173100    1.11162700   -0.63843100
 C                 -4.31087800    3.10627600    1.29909700
 O                 -5.22612400    3.78675700    1.71182100
 O                 -3.25991100    2.76077700    2.09112200
 H                 -3.45941000    3.14360600    2.96635900
 H                 -4.90147100    4.41654800   -0.92690000
 C                 -4.64839300    3.04022200   -2.51597800
 O                 -3.50907000    3.02865500   -2.93028400
 O                 -5.71801500    2.84622400   -3.32334100
 H                 -5.35350900    2.70588900   -4.21811900

C H N O S Se P 0
6-31g(d)
****
Au     0
S    1   1.00
      2.8090000              1.0000000
S    1   1.00
      1.5950000              1.0000000
S    1   1.00
      0.5327000              1.0000000
S    1   1.00
      0.2826000              1.0000000
S    1   1.00
      0.0598000              1.0000000
P    1   1.00
      3.6840000              1.0000000
P    1   1.00
      1.6660000              1.0000000
P    1   1.00
      0.5989000              1.0000000
P    1   1.00
      0.0977000              1.0000000
P    1   1.00
      0.0279000              1.0000000
D    1   1.00
      1.2870000              1.0000000
D    1   1.00
      0.4335000              1.0000000
D    1   1.00
      0.1396000              1.0000000
F    1   1.00
      1.0500000              1.0000000
****

AU     0
AU-ECP     4     60
g potential
  5
1    622.6287956            -60.0000000
2    136.2843607           -555.5292312
2     33.1549781           -168.0019785
2      9.9894895            -63.0399875
2      3.0481312             -4.2516681
s-g potential
  6
0    194.7374304              3.0000000
1    351.5327447             38.6020880
2    122.3270402            864.8370727
2     32.0914617            374.9935520
2      5.2451812            289.7910100
2      4.4916223           -152.4532773
p-g potential
  4
0    420.6158801              2.0000000
1    109.4417815             73.8885625
2     34.1714280            326.6729872
2      5.9879750            126.5814591
d-g potential
  5
0    219.2666158              3.0000000
1    122.7297786             55.6793149
2     63.1063369            449.1987335
2     18.3684520            215.0269091
2      4.4972844             64.0840995
f-g potential
  5
0    108.5506037              4.0000000
1     56.4795527             51.8065335
2     29.2069159            231.2183113
2      9.5440543            119.0047386
2      2.8965118             15.3424188

