%mem=30000MB
%nprocshared=8
# opt freq=noraman b3lyp/gen pseudo=read

Title Card Required

0 1
             79           0       -0.401762   -0.105235   -0.453934
             16           0        1.821984   -0.026419   -1.150024
             15           0       -2.617884   -0.225447    0.114218
              6           0       -3.680885    0.742790   -1.017206
              6           0       -5.165962    0.771608   -0.668368
              6           0       -3.293657   -1.926110    0.074859
              6           0       -2.502171   -2.927122    0.906613
              6           0       -2.963607    0.401600    1.803436
              6           0       -2.562623    1.860396    2.011792
              1           0       -3.260293    1.751894   -1.042599
              1           0       -3.516174    0.322082   -2.018269
              1           0       -5.702804    1.371312   -1.407570
              1           0       -5.343799    1.220789    0.312318
              1           0       -5.607822   -0.228537   -0.670796
              1           0       -4.334985   -1.879388    0.404242
              1           0       -3.296519   -2.235180   -0.977839
              1           0       -2.947356   -3.920005    0.798104
              1           0       -2.510859   -2.672942    1.968265
              1           0       -1.456668   -2.983909    0.580698
              1           0       -2.408947   -0.245432    2.485671
              1           0       -4.031770    0.247389    2.006139
              1           0       -1.495644    2.012934    1.806385
              1           0       -2.751608    2.163566    3.047935
              1           0       -3.135648    2.525614    1.354851
              6           0        2.769334    0.597950    0.293915
              1           0        2.278250    0.268936    1.212440
              6           0        4.187160    0.055816    0.223455
              1           0        4.632964    0.227552   -0.757067
              6           0        2.761140    2.101904    0.237124
              8           0        3.596678    2.778259   -0.319313
              8           0        1.707442    2.627897    0.870583
              1           0        1.739514    3.583791    0.753017
              1           0        4.837145    0.568351    0.954072
              6           0        4.232816   -1.402942    0.575394
              8           0        3.512213   -1.956817    1.369230
              8           0        5.215213   -2.033886   -0.064442
              1           0        5.227128   -2.959784    0.243381

C H O S P 0
6-31g(d)
****
Au     0
S    1   1.00
      2.8090000              1.0000000
S    1   1.00
      1.5950000              1.0000000
S    1   1.00
      0.5327000              1.0000000
S    1   1.00
      0.2826000              1.0000000
S    1   1.00
      0.0598000              1.0000000
P    1   1.00
      3.6840000              1.0000000
P    1   1.00
      1.6660000              1.0000000
P    1   1.00
      0.5989000              1.0000000
P    1   1.00
      0.0977000              1.0000000
P    1   1.00
      0.0279000              1.0000000
D    1   1.00
      1.2870000              1.0000000
D    1   1.00
      0.4335000              1.0000000
D    1   1.00
      0.1396000              1.0000000
F    1   1.00
      1.0500000              1.0000000
****

AU     0
AU-ECP     4     60
g potential
  5
1    622.6287956            -60.0000000
2    136.2843607           -555.5292312
2     33.1549781           -168.0019785
2      9.9894895            -63.0399875
2      3.0481312             -4.2516681
s-g potential
  6
0    194.7374304              3.0000000
1    351.5327447             38.6020880
2    122.3270402            864.8370727
2     32.0914617            374.9935520
2      5.2451812            289.7910100
2      4.4916223           -152.4532773
p-g potential
  4
0    420.6158801              2.0000000
1    109.4417815             73.8885625
2     34.1714280            326.6729872
2      5.9879750            126.5814591
d-g potential
  5
0    219.2666158              3.0000000
1    122.7297786             55.6793149
2     63.1063369            449.1987335
2     18.3684520            215.0269091
2      4.4972844             64.0840995
f-g potential
  5
0    108.5506037              4.0000000
1     56.4795527             51.8065335
2     29.2069159            231.2183113
2      9.5440543            119.0047386
2      2.8965118             15.3424188

