%mem=50000MB
%nprocshared=12
# opt freq=noraman b3lyp/gen pseudo=read

Title Card Required

0 1
 Au                 2.20110500    0.40265400   -0.03461800
 P                  3.54270900    2.25336300    0.76978300
 C                  4.75115800    2.79209000   -0.52228700
 H                  5.30571200    3.66068800   -0.12933000
 H                  4.14611900    3.14847700   -1.36283100
 C                  4.49440400    2.00317500    2.33050600
 H                  5.10890400    2.89438800    2.50181300
 H                  5.18587500    1.16912200    2.14931800
 C                  2.42881500    3.71146200    1.04258000
 H                  1.69687900    3.41253200    1.80191100
 H                  1.84826800    3.81355800    0.11475200
 C                  5.70749700    1.68673300   -0.97574500
 H                  6.31817800    1.31238100   -0.14706600
 H                  5.16516200    0.84015700   -1.41092800
 H                  6.38691100    2.08258600   -1.73610200
 C                  3.11568700    5.02776400    1.41649100
 H                  2.35080000    5.80904300    1.55682600
 H                  3.67479300    4.94366800    2.35851500
 H                  3.79863900    5.37072700    0.64031700
 C                  3.61098800    1.69776300    3.55052900
 H                  3.00837100    0.80298900    3.39258300
 H                  4.23592800    1.53234400    4.43540000
 H                  2.93739500    2.53788200    3.78676300
 S                  3.50421200   -1.34029700    1.20210600
 C                  3.22768000   -2.89820800    0.25105200
 C                  4.46557700   -3.33708300   -0.54199300
 H                  2.38371400   -2.67143300   -0.41911100
 H                  5.32186600   -3.53267400    0.11984800
 N                 -6.88267700    1.65205300    2.05513400
 C                 -5.68122900    1.89629900    1.25183700
 C                 -5.61763300    0.94321400    0.05201500
 O                 -5.88517200   -0.24940100    0.20533700
 C                 -4.45934000    1.68440900    2.18723300
 O                 -3.20417600    1.96912500    1.58682000
 N                 -5.30137500    1.40039300   -1.20110600
 C                 -4.90156500    2.74035100   -1.61934700
 C                 -3.56457600    3.21127800   -1.02111200
 O                 -3.56891300    4.12801900   -0.18386700
 N                 -2.40524700    2.60024300   -1.37446800
 C                 -2.15353300    1.48094400   -2.26646900
 C                 -2.54157700    0.07683500   -1.74666600
 O                 -2.87377800   -0.78614800   -2.55846600
 C                 -0.63433200    1.48805900   -2.69727200
 S                  0.68102000    2.10104900   -1.44070300
 N                 -2.40852900   -0.13404600   -0.41449000
 C                 -2.06256600   -1.46089600    0.08889100
 C                 -0.57179100   -1.52972700    0.47854300
 C                 -2.91283500   -1.78742900    1.33128800
 O                 -2.62403700   -1.30934400    2.42581800
 N                 -3.96230600   -2.63834000    1.16624400
 C                 -4.59832800   -3.00932700   -0.08027000
 C                 -6.04715000   -3.35545200    0.19362300
 O                 -6.54825900   -3.41064400    1.29459300
 O                 -6.70301100   -3.63595000   -0.94386400
 H                 -4.62713800    2.30245400    3.07973100
 H                 -4.41304500    0.63783500    2.49773500
 H                 -3.20801000    2.91126700    1.31461400
 H                 -5.68400600    2.94454700    0.92645100
 H                 -6.98249700    0.64124300    2.15800800
 H                 -7.70849200    1.96203400    1.53494800
 H                 -5.63983000    3.48624900   -1.32094800
 H                 -4.85086700    2.72986800   -2.71355900
 H                 -5.22176300    0.64899300   -1.89251100
 H                 -0.54227500    2.25902200   -3.48639700
 H                 -0.37129200    0.50117600   -3.13407100
 H                 -2.71994700    1.59514200   -3.21082500
 H                 -1.58408900    2.92632200   -0.86758900
 H                 -0.33671200   -2.49581700    0.94446400
 H                 -0.37138300   -0.75996800    1.21698600
 H                 -2.27389600   -2.16513900   -0.72570600
 H                 -2.27958700    0.65233600    0.22198700
 H                 -4.12772600   -3.89288200   -0.54614200
 H                 -4.56987800   -2.20554300   -0.82004700
 H                 -4.56184100   -2.72722400    1.97720600
 H                 -7.62657400   -3.85509400   -0.67997300
 Se                 0.60137800   -1.22377600   -1.09262400
 C                  2.79835000   -4.01808000    1.18634500
 O                  3.51545300   -4.90870400    1.59747800
 O                  1.48154400   -3.96758300    1.48646200
 H                  1.31058200   -4.70423900    2.09626400
 H                  4.24786100   -4.29629300   -1.02943700
 C                  4.87179200   -2.36382700   -1.62636400
 O                  4.16594800   -1.54265400   -2.16801900
 O                  6.16688300   -2.54071000   -1.97231300
 H                  6.33854500   -1.92878400   -2.70850400

C H N O S Se P 0
6-31g(d)
****
Au     0
S    1   1.00
      2.8090000              1.0000000
S    1   1.00
      1.5950000              1.0000000
S    1   1.00
      0.5327000              1.0000000
S    1   1.00
      0.2826000              1.0000000
S    1   1.00
      0.0598000              1.0000000
P    1   1.00
      3.6840000              1.0000000
P    1   1.00
      1.6660000              1.0000000
P    1   1.00
      0.5989000              1.0000000
P    1   1.00
      0.0977000              1.0000000
P    1   1.00
      0.0279000              1.0000000
D    1   1.00
      1.2870000              1.0000000
D    1   1.00
      0.4335000              1.0000000
D    1   1.00
      0.1396000              1.0000000
F    1   1.00
      1.0500000              1.0000000
****

AU     0
AU-ECP     4     60
g potential
  5
1    622.6287956            -60.0000000
2    136.2843607           -555.5292312
2     33.1549781           -168.0019785
2      9.9894895            -63.0399875
2      3.0481312             -4.2516681
s-g potential
  6
0    194.7374304              3.0000000
1    351.5327447             38.6020880
2    122.3270402            864.8370727
2     32.0914617            374.9935520
2      5.2451812            289.7910100
2      4.4916223           -152.4532773
p-g potential
  4
0    420.6158801              2.0000000
1    109.4417815             73.8885625
2     34.1714280            326.6729872
2      5.9879750            126.5814591
d-g potential
  5
0    219.2666158              3.0000000
1    122.7297786             55.6793149
2     63.1063369            449.1987335
2     18.3684520            215.0269091
2      4.4972844             64.0840995
f-g potential
  5
0    108.5506037              4.0000000
1     56.4795527             51.8065335
2     29.2069159            231.2183113
2      9.5440543            119.0047386
2      2.8965118             15.3424188

