%mem=30000MB
%nprocshared=8
# opt freq=noraman b3lyp/gen pseudo=read

af

0 1
 Au                 0.00000000    0.00000000    0.00000000
 S                  0.00000000    0.00000000    2.35011880
 P                  0.00035094    0.00000000   -2.38992230
 C                 -0.53016213   -1.63182569   -2.99662136
 C                 -1.95029753   -1.93366843   -2.48304816
 C                 -1.14754792    1.27537457   -2.99660729
 C                 -0.69854599    2.65611970   -2.48328248
 C                  1.67887131    0.35646005   -2.99655385
 C                  1.67893941    0.35645952   -4.53655694
 H                 -0.53034046   -1.63170706   -4.06661901
 H                  0.14484449   -2.38159783   -2.64013493
 H                 -2.26218751   -2.89300505   -2.83983258
 H                 -2.62532951   -1.18385256   -2.83941750
 H                 -1.95005708   -1.93388112   -1.41304356
 H                 -1.14757685    1.27537744   -4.06660397
 H                 -2.13436501    1.06583841   -2.63992409
 H                 -1.37341519    3.40595562   -2.83992013
 H                  0.28817107    2.86566792   -2.84001335
 H                 -0.69843471    2.65606108   -1.41323461
 H                  2.35374468   -0.39333900   -2.63987087
 H                  1.99075138    1.31583619   -2.63988197
 H                  1.36713249   -0.60293173   -4.89322388
 H                  2.66572891    0.56609913   -4.89318747
 H                  1.00401416    1.10622394   -4.89324007
 C                  1.64160072    0.34788818    2.94386919
 H                  1.95411368    1.30706572    2.58711560
 H                  1.64124636    0.34804705    4.01386737
 H                  2.31622893   -0.40232928    2.58758334

C H S P 0
6-31g(d)
****
Au     0
S    1   1.00
      2.8090000              1.0000000
S    1   1.00
      1.5950000              1.0000000
S    1   1.00
      0.5327000              1.0000000
S    1   1.00
      0.2826000              1.0000000
S    1   1.00
      0.0598000              1.0000000
P    1   1.00
      3.6840000              1.0000000
P    1   1.00
      1.6660000              1.0000000
P    1   1.00
      0.5989000              1.0000000
P    1   1.00
      0.0977000              1.0000000
P    1   1.00
      0.0279000              1.0000000
D    1   1.00
      1.2870000              1.0000000
D    1   1.00
      0.4335000              1.0000000
D    1   1.00
      0.1396000              1.0000000
F    1   1.00
      1.0500000              1.0000000
****

AU     0
AU-ECP     4     60
g potential
  5
1    622.6287956            -60.0000000
2    136.2843607           -555.5292312
2     33.1549781           -168.0019785
2      9.9894895            -63.0399875
2      3.0481312             -4.2516681
s-g potential
  6
0    194.7374304              3.0000000
1    351.5327447             38.6020880
2    122.3270402            864.8370727
2     32.0914617            374.9935520
2      5.2451812            289.7910100
2      4.4916223           -152.4532773
p-g potential
  4
0    420.6158801              2.0000000
1    109.4417815             73.8885625
2     34.1714280            326.6729872
2      5.9879750            126.5814591
d-g potential
  5
0    219.2666158              3.0000000
1    122.7297786             55.6793149
2     63.1063369            449.1987335
2     18.3684520            215.0269091
2      4.4972844             64.0840995
f-g potential
  5
0    108.5506037              4.0000000
1     56.4795527             51.8065335
2     29.2069159            231.2183113
2      9.5440543            119.0047386
2      2.8965118             15.3424188

