%mem=30000MB
%nprocshared=8
# opt freq=noraman b3lyp/gen pseudo=read

Title Card Required

0 1
 Au                 1.28723300    2.77048200   -0.44969600
 P                  3.11507200    3.78780700    0.53713000
 C                  4.76633800    3.39816100   -0.19907300
 H                  5.52708500    3.92774300    0.37925800
 H                  4.76991900    3.82947400   -1.21358900
 C                  3.25330700    3.32698000    2.32037100
 H                  4.16506800    3.78453700    2.71631800
 H                  3.37786100    2.24562500    2.34628100
 C                  2.96018000    5.64166600    0.46713300
 H                  1.96535800    5.87295000    0.86519200
 H                  2.91981000    5.90676200   -0.59670900
 C                  5.08315100    1.89064400   -0.27106600
 H                  5.09502800    1.43297800    0.72930500
 H                  4.32713500    1.36699400   -0.86506700
 H                  6.06289800    1.74072000   -0.73075400
 C                  4.03882100    6.44413700    1.19627700
 H                  3.83053500    7.51763900    1.09858500
 H                  4.07833100    6.21387100    2.26413400
 H                  5.03206300    6.26629500    0.78051500
 C                  2.02889100    3.73002800    3.16906700
 H                  1.10493900    3.28295900    2.77286300
 H                  2.15901400    3.38505300    4.20033100
 H                  1.88535000    4.81940300    3.20704100
 S                  1.62006700    0.17375300   -2.33671300
 O                  2.23307400   -0.63949000    0.15917700
 O                  3.17866400   -2.46789400   -2.85409200
 O                  5.19601400   -1.78908300   -3.66241600
 O                  5.21187500   -3.23200200   -0.81384500
 O                  4.61959800   -5.14128900   -1.90066800
 O                  3.95376600   -3.42909400    1.77200400
 O                  5.94730800   -2.59949400    2.48854500
 O                  3.35852400   -0.30127800    2.91795500
 O                  3.68439500   -1.57115400    4.77058500
 C                  2.07537000   -1.14936000   -1.17480300
 C                  3.39729400   -1.81525500   -1.59590700
 C                  3.84710500   -2.87137900   -0.56825800
 C                  3.78046000   -2.33250600    0.85996900
 C                  2.41512900   -1.68658300    1.11934900
 C                  4.13440700   -2.36116800   -3.81860600
 C                  3.68625400   -3.08746600   -5.06632100
 C                  5.47287100   -4.36289400   -1.51969300
 C                  6.95393000   -4.49169500   -1.76242200
 C                  5.08387500   -3.44803400    2.54775900
 C                  5.04828800   -4.60608800    3.49636400
 C                  2.23501600   -1.13232600    2.52539700
 C                  4.01923500   -0.66141200    4.05542700
 C                  5.24472600    0.20272400    4.26546500
 H                  1.28954600   -1.91906000   -1.15739100
 H                  4.17661400   -1.05822900   -1.71000400
 H                  3.21725700   -3.75999300   -0.67233400
 H                  4.57579100   -1.59751100    1.01885900
 H                  1.61247900   -2.43512700    0.99684500
 H                  4.43097000   -2.94067600   -5.85067600
 H                  2.71116900   -2.71207500   -5.38871900
 H                  3.57930200   -4.15488700   -4.84877700
 H                  7.52042000   -4.27785200   -0.85734100
 H                  7.24620400   -3.74469200   -2.51541700
 H                  7.18530900   -5.49218200   -2.14220800
 H                  4.48209100   -4.30609600    4.38614600
 H                  6.06514000   -4.85146200    3.80932700
 H                  4.56031400   -5.47605000    3.05285700
 H                  1.33793100   -0.51645500    2.55967900
 H                  2.14640300   -1.94405500    3.24422700
 H                  5.50571200    0.19427200    5.32247200
 H                  5.09253200    1.21940500    3.91865000
 H                  6.06698800   -0.25068800    3.69451600
 N                -10.66258800   -1.45562000    1.15093800
 C                 -9.37217700   -0.76959000    1.16016300
 C                 -8.30886700   -1.51734800    0.34730000
 O                 -8.18297100   -2.74615000    0.52941400
 C                 -8.88112900   -0.66633800    2.62680600
 O                 -7.56468400   -0.16451400    2.74196400
 N                 -7.53082500   -0.87588300   -0.56114400
 C                 -7.55166100    0.51147200   -0.97654500
 C                 -6.66838900    1.43141000   -0.10372300
 O                 -7.13987200    1.94044500    0.91735900
 N                 -5.37830200    1.65669700   -0.45828500
 C                 -4.66128200    1.28456600   -1.67963300
 C                 -3.81378800    0.00075300   -1.59331300
 O                 -3.59353300   -0.64224800   -2.61425100
 C                 -3.72741300    2.44282100   -2.11381100
 S                 -2.49606400    2.99109600   -0.85865300
 N                 -3.23693700   -0.27462400   -0.38907800
 C                 -1.89768800   -0.87606400   -0.33403500
 C                 -0.86315000    0.20304400    0.00967000
 C                 -1.77669600   -2.01587300    0.70069200
 O                 -1.03036900   -1.89447500    1.67324400
 N                 -2.47509900   -3.16870000    0.47823200
 C                 -3.52350500   -3.42131800   -0.48573800
 C                 -4.86936600   -3.54396400    0.23059400
 O                 -4.97071200   -3.75982400    1.40887400
 O                 -5.89893900   -3.41600000   -0.62220500
 H                 -9.61095500   -0.06077600    3.18212500
 H                 -8.87490200   -1.67253700    3.05697000
 H                 -7.52934400    0.71885000    2.33203600
 H                 -9.52148300    0.24161100    0.77975800
 H                -10.49684600   -2.44180500    1.34448500
 H                -11.08742100   -1.40550700    0.23044200
 H                 -8.55957300    0.91246100   -0.90101400
 H                 -7.26639600    0.54781000   -2.03328300
 H                 -6.81334400   -1.47536400   -0.98929100
 H                 -4.34460500    3.31501400   -2.35695600
 H                 -3.20053800    2.14288700   -3.03260600
 H                 -5.37532900    1.12319700   -2.49597900
 H                 -4.88024200    2.30078800    0.15185300
 H                  0.10947500   -0.23413500    0.23276000
 H                 -1.18611200    0.80196300    0.86941700
 H                 -1.71098800   -1.27565400   -1.33590900
 H                 -3.45492000    0.36342700    0.36518800
 H                 -3.32992800   -4.38013000   -0.99662800
 H                 -3.56267300   -2.66601900   -1.26065700
 H                 -2.45876000   -3.79111500    1.28153100
 H                 -6.76087300   -3.41015000   -0.11158000
 Se                -0.55548300    1.49551800   -1.49262300

C H N O S Se P 0
6-31g(d)
****
Au     0
S    1   1.00
      2.8090000              1.0000000
S    1   1.00
      1.5950000              1.0000000
S    1   1.00
      0.5327000              1.0000000
S    1   1.00
      0.2826000              1.0000000
S    1   1.00
      0.0598000              1.0000000
P    1   1.00
      3.6840000              1.0000000
P    1   1.00
      1.6660000              1.0000000
P    1   1.00
      0.5989000              1.0000000
P    1   1.00
      0.0977000              1.0000000
P    1   1.00
      0.0279000              1.0000000
D    1   1.00
      1.2870000              1.0000000
D    1   1.00
      0.4335000              1.0000000
D    1   1.00
      0.1396000              1.0000000
F    1   1.00
      1.0500000              1.0000000
****

AU     0
AU-ECP     4     60
g potential
  5
1    622.6287956            -60.0000000
2    136.2843607           -555.5292312
2     33.1549781           -168.0019785
2      9.9894895            -63.0399875
2      3.0481312             -4.2516681
s-g potential
  6
0    194.7374304              3.0000000
1    351.5327447             38.6020880
2    122.3270402            864.8370727
2     32.0914617            374.9935520
2      5.2451812            289.7910100
2      4.4916223           -152.4532773
p-g potential
  4
0    420.6158801              2.0000000
1    109.4417815             73.8885625
2     34.1714280            326.6729872
2      5.9879750            126.5814591
d-g potential
  5
0    219.2666158              3.0000000
1    122.7297786             55.6793149
2     63.1063369            449.1987335
2     18.3684520            215.0269091
2      4.4972844             64.0840995
f-g potential
  5
0    108.5506037              4.0000000
1     56.4795527             51.8065335
2     29.2069159            231.2183113
2      9.5440543            119.0047386
2      2.8965118             15.3424188

Au 1.78

