%nproc=10
%mem=50000mb
# b3lyp/gen opt pseudo=read freq=noraman

Title Card Required

0 1
            79           0        0.147461   -1.508238    0.265361
            15           0        0.505370   -3.480051   -1.135478
             6           0       -0.528125   -4.876281   -0.497082
             1           0       -0.384490   -5.741795   -1.152975
             1           0       -1.566431   -4.549194   -0.591458
             6           0        2.226333   -4.152745   -1.253590
             1           0        2.134152   -5.158461   -1.683058
             1           0        2.607997   -4.257394   -0.236617
             6           0       -0.047215   -3.167119   -2.877224
             1           0        0.563841   -2.343742   -3.252054
             1           0       -1.076507   -2.790522   -2.809629
             6           0       -0.207863   -5.251420    0.962794
             1           0        0.824078   -5.597289    1.081699
             1           0       -0.357053   -4.399791    1.635656
             1           0       -0.867864   -6.059843    1.294365
             6           0        0.023474   -4.372889   -3.827983
             1           0       -0.322686   -4.069758   -4.822606
             1           0        1.044157   -4.753557   -3.935702
             1           0       -0.614509   -5.196509   -3.497432
             6           0        3.195223   -3.276694   -2.069535
             1           0        3.281908   -2.273810   -1.642082
             1           0        4.189998   -3.736350   -2.059735
             1           0        2.889017   -3.180833   -3.116046
            16           0        2.315044   -1.784514    1.279482
             8           0        3.244574   -0.036751   -0.491170
             8           0        4.564057   -0.286503    2.925007
             8           0        5.480552   -2.363685    3.057539
             8           0        6.797548    0.711450    1.415512
             8           0        6.841511    2.532522    2.779386
             8           0        5.933316    2.423591   -0.770460
             8           0        7.621784    1.387916   -1.888061
             8           0        4.407941    0.492175   -3.123627
             8           0        5.390462    2.199817   -4.257845
             6           0        3.189027   -0.225022    0.920718
             6           0        4.618449   -0.294211    1.491730
             6           0        5.423392    0.939233    1.065988
             6           0        5.326218    1.163892   -0.441535
             6           0        3.848328    1.205074   -0.861984
             6           0        5.011557   -1.388256    3.594929
             6           0        4.822592   -1.200204    5.080009
             6           0        7.394562    1.580462    2.280997
             6           0        8.829994    1.171122    2.508633
             6           0        7.069368    2.403341   -1.528077
             6           0        7.492355    3.804774   -1.881412
             6           0        3.633342    1.427080   -2.350966
             6           0        5.282170    1.014776   -4.029686
             6           0        6.113663   -0.071255   -4.661086
             1           0        2.636821    0.608260    1.377632
             1           0        5.119631   -1.202847    1.151015
             1           0        5.067075    1.823179    1.600767
             1           0        5.842775    0.365765   -0.977369
             1           0        3.341340    2.032067   -0.337479
             1           0        5.303917   -2.020551    5.613787
             1           0        3.751445   -1.189370    5.311088
             1           0        5.236348   -0.239472    5.401553
             1           0        9.369164    1.152804    1.555100
             1           0        8.868302    0.157735    2.922598
             1           0        9.304558    1.872628    3.195741
             1           0        6.933728    4.105407   -2.775795
             1           0        8.558088    3.815890   -2.115654
             1           0        7.263272    4.507383   -1.076980
             1           0        2.578927    1.260731   -2.589027
             1           0        3.915062    2.443045   -2.628535
             1           0        6.444275    0.251795   -5.649154
             1           0        5.565835   -1.014113   -4.724144
             1           0        6.997844   -0.221417   -4.030138
             7           0      -11.046602   -1.406050   -0.147886
             6           0       -9.699755   -0.866823   -0.356592
             6           0       -8.963056   -0.682560    0.977941
             8           0       -9.538919   -0.157272    1.927121
             6           0       -9.829327    0.509609   -1.044731
             8           0       -8.591009    1.171761   -1.216811
             7           0       -7.678155   -1.132897    1.132521
             6           0       -6.811118   -1.841632    0.208129
             6           0       -6.186934   -0.948630   -0.881530
             8           0       -6.737321   -0.828334   -1.978406
             7           0       -5.044617   -0.276637   -0.583415
             6           0       -4.307074   -0.254896    0.677699
             6           0       -3.718459    1.149025    0.933890
             8           0       -4.069684    1.825802    1.890459
             6           0       -3.223823   -1.350747    0.802253
            16           0       -2.096990   -1.510590   -0.669742
             7           0       -2.793251    1.546765    0.001865
             6           0       -1.824115    2.593507    0.319431
             6           0       -0.395436    2.014285    0.396769
             6           0       -1.885275    3.672549   -0.784650
             8           0       -1.202583    3.574433   -1.798069
             7           0       -2.753765    4.703647   -0.589063
             6           0       -3.657221    4.926886    0.523193
             6           0       -4.707537    5.939995    0.103470
             8           0       -4.732317    6.508767   -0.965789
             8           0       -5.601105    6.146058    1.087608
             1           0      -10.360755    0.360143   -1.996849
             1           0      -10.442513    1.159666   -0.412654
             1           0       -8.030320    0.609359   -1.787533
             1           0       -9.161900   -1.532108   -1.036798
             1           0      -11.454310   -0.907265    0.644487
             1           0      -10.988825   -2.383811    0.137579
             1           0       -7.343778   -2.627399   -0.332936
             1           0       -6.044734   -2.332410    0.820829
             1           0       -7.309342   -0.934251    2.058331
             1           0       -3.714929   -2.324865    0.919319
             1           0       -2.629786   -1.157652    1.696576
             1           0       -5.009721   -0.405003    1.502688
             1           0       -4.711753    0.329681   -1.331530
             1           0        0.290086    2.788593    0.729979
             1           0       -0.068135    1.688971   -0.590811
             1           0       -2.111963    3.005377    1.289305
             1           0       -2.446156    0.821457   -0.623614
             1           0       -3.143051    5.331712    1.408746
             1           0       -4.159906    4.010057    0.850273
             1           0       -2.849675    5.352290   -1.364877
             1           0       -6.247899    6.795988    0.752074
            34           0       -0.221338    0.523573    1.708826

C H N O S P Se 0
6-31g(d)
****
Au     0
S    1   1.00
      2.8090000              1.0000000
S    1   1.00
      1.5950000              1.0000000
S    1   1.00
      0.5327000              1.0000000
S    1   1.00
      0.2826000              1.0000000
S    1   1.00
      0.0598000              1.0000000
P    1   1.00
      3.6840000              1.0000000
P    1   1.00
      1.6660000              1.0000000
P    1   1.00
      0.5989000              1.0000000
P    1   1.00
      0.0977000              1.0000000
P    1   1.00
      0.0279000              1.0000000
D    1   1.00
      1.2870000              1.0000000
D    1   1.00
      0.4335000              1.0000000
D    1   1.00
      0.1396000              1.0000000
F    1   1.00
      1.0500000              1.0000000
****

AU     0
AU-ECP     4     60
g potential
  5
1    622.6287956            -60.0000000
2    136.2843607           -555.5292312
2     33.1549781           -168.0019785
2      9.9894895            -63.0399875
2      3.0481312             -4.2516681
s-g potential
  6
0    194.7374304              3.0000000
1    351.5327447             38.6020880
2    122.3270402            864.8370727
2     32.0914617            374.9935520
2      5.2451812            289.7910100
2      4.4916223           -152.4532773
p-g potential
  4
0    420.6158801              2.0000000
1    109.4417815             73.8885625
2     34.1714280            326.6729872
2      5.9879750            126.5814591
d-g potential
  5
0    219.2666158              3.0000000
1    122.7297786             55.6793149
2     63.1063369            449.1987335
2     18.3684520            215.0269091
2      4.4972844             64.0840995
f-g potential
  5
0    108.5506037              4.0000000
1     56.4795527             51.8065335
2     29.2069159            231.2183113
2      9.5440543            119.0047386
2      2.8965118             15.3424188

