%mem=50000MB
%nprocshared=15
%chk=au-1to3-ts-2-af-c-term-level3-freq-se-ts0-c.chk
# opt=(ts,readfc,noeigentest) freq=noraman b3lyp/gen
  pseudo=read

Title Card Required

0 1
Au     1.425398     2.508902    -0.541180
 P     3.096797     4.042494    -0.207154
 C     4.495226     3.830058    -1.407452
 H     5.265687     4.577511    -1.179124
 H     4.096327     4.068713    -2.401035
 C     3.926433     3.960410     1.448323
 H     4.819078     4.598344     1.408634
 H     4.284321     2.932655     1.561761
 C     2.514112     5.796004    -0.402451
 H     1.728343     5.932799     0.349200
 H     2.009172     5.840670    -1.374797
 C     5.079822     2.408690    -1.402902
 H     5.441745     2.118637    -0.409937
 H     4.322828     1.679607    -1.709834
 H     5.921244     2.348713    -2.101443
 C     3.574046     6.899574    -0.289574
 H     3.099127     7.882461    -0.384266
 H     4.088915     6.877406     0.677061
 H     4.330124     6.823774    -1.077684
 C     3.026629     4.346508     2.629402
 H     2.091208     3.776000     2.623231
 H     3.538253     4.138991     3.575527
 H     2.771040     5.411588     2.619665
 S     1.569757     0.015851    -1.904293
 O     3.072883    -0.372764     0.306239
 O     2.252797    -3.015314    -2.072516
 O     3.738244    -3.130135    -3.788521
 O     4.845170    -3.849434    -0.852273
 O     3.541445    -5.712881    -0.930918
 O     4.851300    -3.112909     1.951063
 O     7.057532    -2.710150     1.570089
 O     5.288619     0.255574     2.152875
 O     6.245718    -0.565830     4.043130
 C     2.259401    -1.094353    -0.638304
 C     3.127507    -2.194055    -1.286697
 C     3.807154    -3.076337    -0.224471
 C     4.465080    -2.240337     0.870852
 C     3.472461    -1.197086     1.400222
 C     2.658561    -3.398696    -3.310612
 C     1.598725    -4.245138    -3.972750
 C     4.577539    -5.142528    -1.189030
 C     5.741382    -5.728648    -1.948118
 C     6.182458    -3.250257     2.210130
 C     6.403043    -4.107004     3.429450
 C     4.018765    -0.322574     2.517728
 C     6.342575     0.021675     2.988959
 C     7.623309     0.553413     2.401075
 H     1.444204    -1.570526    -0.073986
 H     3.886048    -1.740919    -1.928996
 H     3.072538    -3.760263     0.210661
 H     5.357742    -1.745781     0.485733
 H     2.592753    -1.716598     1.818644
 H     1.801487    -5.299380    -3.737169
 H     1.656006    -4.113988    -5.057454
 H     0.600015    -3.994905    -3.604767
 H     6.684556    -5.524978    -1.429714
 H     5.794141    -5.247360    -2.932567
 H     5.594460    -6.802949    -2.068454
 H     6.356622    -3.452357     4.308903
 H     7.397354    -4.555946     3.382809
 H     5.632965    -4.875785     3.527346
 H     3.320359     0.499805     2.695612
 H     4.140138    -0.900447     3.434568
 H     8.358465     0.691244     3.195470
 H     7.460043     1.488362     1.859198
 H     8.000790    -0.195839     1.695811
 N   -11.043478    -1.175558     1.229510
 C    -9.723660    -0.549657     1.300731
 C    -8.680891    -1.299353     0.462366
 O    -8.608653    -2.532525     0.574934
 C    -9.254142    -0.557574     2.774918
 O    -7.926419    -0.112899     2.940987
 N    -7.865535    -0.639585    -0.410761
 C    -7.829466     0.780026    -0.731443
 C    -6.941364     1.604851     0.219014
 O    -7.418257     2.086373     1.245729
 N    -5.624563     1.786874    -0.091442
 C    -4.894594     1.428669    -1.300086
 C    -4.104168     0.107929    -1.243919
 O    -3.913875    -0.530421    -2.272262
 C    -3.902702     2.559194    -1.676504
 S    -2.644430     2.970516    -0.392942
 N    -3.552895    -0.219729    -0.035172
 C    -2.258480    -0.905385     0.026878
 C    -1.142194     0.079603     0.399331
 C    -2.262387    -2.052462     1.065254
 O    -1.637418    -1.936379     2.113968
 N    -2.925472    -3.201992     0.743906
 C    -3.942508    -3.392275    -0.274607
 C    -5.328701    -3.461431     0.366441
 O    -5.503924    -3.705690     1.539002
 O    -6.305089    -3.254353    -0.531021
 H    -9.980616     0.028687     3.356642
 H    -9.282297    -1.589894     3.138486
 H    -7.861975     0.800960     2.608511
 H    -9.819223     0.491627     0.981013
 H   -10.922772    -2.179976     1.361631
 H   -11.441753    -1.058008     0.299113
 H    -8.829136     1.209346    -0.654559
 H    -7.517722     0.873901    -1.774741
 H    -7.172506    -1.233157    -0.859264
 H    -4.469057     3.479512    -1.854559
 H    -3.395701     2.284892    -2.605455
 H    -5.587419     1.324490    -2.137754
 H    -5.127879     2.371202     0.578120
 H    -0.195158    -0.451807     0.480671
 H    -1.343530     0.586375     1.343193
 H    -2.081050    -1.309376    -0.973355
 H    -3.755926     0.401993     0.738724
 H    -3.768975    -4.340440    -0.802049
 H    -3.909405    -2.606585    -1.029840
 H    -3.008109    -3.827541     1.540099
 H    -7.189034    -3.228865    -0.051823
Se    -0.867451     1.468822    -1.008070

C H N O S P Se 0
6-31g(d)
****
Au     0
S    1   1.00
      2.8090000              1.0000000
S    1   1.00
      1.5950000              1.0000000
S    1   1.00
      0.5327000              1.0000000
S    1   1.00
      0.2826000              1.0000000
S    1   1.00
      0.0598000              1.0000000
P    1   1.00
      3.6840000              1.0000000
P    1   1.00
      1.6660000              1.0000000
P    1   1.00
      0.5989000              1.0000000
P    1   1.00
      0.0977000              1.0000000
P    1   1.00
      0.0279000              1.0000000
D    1   1.00
      1.2870000              1.0000000
D    1   1.00
      0.4335000              1.0000000
D    1   1.00
      0.1396000              1.0000000
F    1   1.00
      1.0500000              1.0000000
****

AU     0
AU-ECP     4     60
g potential
  5
1    622.6287956            -60.0000000
2    136.2843607           -555.5292312
2     33.1549781           -168.0019785
2      9.9894895            -63.0399875
2      3.0481312             -4.2516681
s-g potential
  6
0    194.7374304              3.0000000
1    351.5327447             38.6020880
2    122.3270402            864.8370727
2     32.0914617            374.9935520
2      5.2451812            289.7910100
2      4.4916223           -152.4532773
p-g potential
  4
0    420.6158801              2.0000000
1    109.4417815             73.8885625
2     34.1714280            326.6729872
2      5.9879750            126.5814591
d-g potential
  5
0    219.2666158              3.0000000
1    122.7297786             55.6793149
2     63.1063369            449.1987335
2     18.3684520            215.0269091
2      4.4972844             64.0840995
f-g potential
  5
0    108.5506037              4.0000000
1     56.4795527             51.8065335
2     29.2069159            231.2183113
2      9.5440543            119.0047386
2      2.8965118             15.3424188

Au 1.78

