%mem=30000MB
%nprocshared=8
%chk=au-1to3-ts-2-af33-c-term-level3-freq-se.chk
# opt=(ts,readfc,noeigentest) freq=noraman b3lyp/gen pseudo=read

Title Card Required

0 1
            79           0       -0.636761    2.054344    0.346332
            15           0       -1.222059    4.230544   -0.373378
             6           0       -0.861627    5.549210    0.858202
             1           0       -1.193028    6.505385    0.436842
             1           0        0.231246    5.590460    0.954810
             6           0       -0.376386    4.773959   -1.931096
             1           0       -0.623033    4.016069   -2.684747
             1           0        0.701447    4.674176   -1.745488
             6           0       -1.522767    5.300109    2.220489
             1           0       -2.611328    5.252438    2.125494
             1           0       -1.181619    4.358743    2.663539
             1           0       -1.275514    6.112363    2.912451
             6           0       -0.731768    6.176963   -2.441385
             1           0       -0.258835    6.354929   -3.413406
             1           0       -1.813235    6.289958   -2.564922
             1           0       -0.385235    6.958694   -1.757873
             6           0       -3.669720    3.461570   -1.189511
             1           0       -3.464767    2.514217   -0.684278
             1           0       -3.435071    3.358278   -2.257812
            16           0       -2.457495    1.095484    1.765983
             8           0       -3.826572    0.105998   -0.284815
             8           0       -2.793975   -1.969029    2.550143
             8           0       -4.097154   -1.486974    4.353037
             8           0       -5.207845   -3.268223    1.587996
             8           0       -3.980428   -5.161563    1.300564
             8           0       -5.467174   -3.001684   -1.286224
             8           0       -7.674519   -2.706367   -0.826604
             8           0       -6.146553    0.246880   -2.066387
             8           0       -7.160119   -0.981813   -3.686701
             6           0       -2.970669   -0.335063    0.779832
             6           0       -3.727338   -1.369647    1.642001
             6           0       -4.313505   -2.492339    0.774068
             6           0       -5.096518   -1.924303   -0.406939
             6           0       -4.205599   -0.937796   -1.174950
             6           0       -3.074280   -1.929604    3.883067
             6           0       -1.923703   -2.512481    4.666726
             6           0       -4.924779   -4.586643    1.783309
             6           0       -5.965034   -5.199214    2.692022
             6           0       -6.795217   -3.280479   -1.426809
             6           0       -7.001773   -4.356864   -2.461711
             6           0       -4.868834   -0.325511   -2.400580
             6           0       -7.228661   -0.198392   -2.764953
             6           0       -8.504069    0.376330   -2.205672
             1           0       -2.079697   -0.819217    0.342474
             1           0       -4.525275   -0.882859    2.207556
             1           0       -3.513865   -3.147121    0.416430
             1           0       -5.997969   -1.417840   -0.059558
             1           0       -3.306401   -1.468477   -1.534974
             1           0       -2.207504   -2.606735    5.715644
             1           0       -1.054706   -1.851112    4.578445
             1           0       -1.637206   -3.486927    4.259584
             1           0       -6.965123   -5.053024    2.271490
             1           0       -5.946415   -4.697216    3.665240
             1           0       -5.759739   -6.263031    2.816017
             1           0       -7.023117   -3.875199   -3.446510
             1           0       -7.962786   -4.845280   -2.291722
             1           0       -6.188037   -5.085609   -2.449126
             1           0       -4.236260    0.481691   -2.781091
             1           0       -5.006903   -1.079385   -3.176848
             1           0       -9.262704    0.410907   -2.989737
             1           0       -8.347028    1.366667   -1.772787
             1           0       -8.849915   -0.298756   -1.414066
             7           0        9.747405   -1.417285   -0.573582
             6           0        8.561519   -0.614579   -0.266515
             6           0        7.515272   -1.427385    0.511167
             8           0        7.224618   -2.569725    0.131697
             6           0        7.947428   -0.143642   -1.603710
             8           0        6.802051    0.681846   -1.443105
             7           0        6.923107   -0.916654    1.633043
             6           0        7.102780    0.404209    2.220756
             6           0        6.478673    1.546519    1.401836
             8           0        7.193721    2.375515    0.836213
             7           0        5.119866    1.603804    1.310976
             6           0        4.138035    0.686621    1.871829
             6           0        3.878738   -0.595284    1.056725
             8           0        3.577179   -1.644350    1.653720
             6           0        2.796020    1.428567    2.082233
            16           0        2.027768    2.055727    0.515422
             7           0        3.902286   -0.461752   -0.289429
             6           0        3.072718   -1.271478   -1.172720
             6           0        1.724416   -0.585419   -1.468490
             6           0        3.838856   -1.447791   -2.503694
             8           0        3.738826   -0.598515   -3.383732
             7           0        4.628178   -2.545110   -2.636048
             6           0        4.916506   -3.574041   -1.656536
             6           0        6.201896   -4.273828   -2.059263
             8           0        6.915895   -3.938768   -2.975891
             8           0        6.436929   -5.341363   -1.276677
             1           0        8.740478    0.357258   -2.173180
             1           0        7.621636   -1.021138   -2.170491
             1           0        7.090242    1.506559   -1.012386
             1           0        8.880951    0.270882    0.292170
             1           0        9.428659   -2.318995   -0.929122
             1           0       10.261453   -1.619086    0.282254
             1           0        8.161167    0.648592    2.322168
             1           0        6.677688    0.373818    3.228354
             1           0        6.209522   -1.522737    2.023188
             1           0        2.971155    2.305465    2.714607
             1           0        2.091205    0.769704    2.591075
             1           0        4.469712    0.357266    2.861307
             1           0        4.779646    2.357640    0.720856
             1           0        1.086565   -1.245204   -2.065689
             1           0        1.877592    0.334918   -2.031075
             1           0        2.907169   -2.223419   -0.662679
             1           0        4.274685    0.395588   -0.683880
             1           0        4.118763   -4.327116   -1.590416
             1           0        5.081727   -3.164496   -0.655363
             1           0        5.220470   -2.551888   -3.460895
             1           0        7.293286   -5.710830   -1.563107
            34           0        0.650850   -0.187390    0.167617
             6           0       -5.114532    3.874364   -0.987451
             1           0       -5.337104    4.819335   -1.494427
             1           0       -5.767233    3.091912   -1.389885
             1           0       -5.331663    3.985948    0.079394
             8           0       -2.818475    4.500960   -0.631139

C H N O S Se P 0
6-31g(d)
****
Au     0
S    1   1.00
      2.8090000              1.0000000
S    1   1.00
      1.5950000              1.0000000
S    1   1.00
      0.5327000              1.0000000
S    1   1.00
      0.2826000              1.0000000
S    1   1.00
      0.0598000              1.0000000
P    1   1.00
      3.6840000              1.0000000
P    1   1.00
      1.6660000              1.0000000
P    1   1.00
      0.5989000              1.0000000
P    1   1.00
      0.0977000              1.0000000
P    1   1.00
      0.0279000              1.0000000
D    1   1.00
      1.2870000              1.0000000
D    1   1.00
      0.4335000              1.0000000
D    1   1.00
      0.1396000              1.0000000
F    1   1.00
      1.0500000              1.0000000
****

AU     0
AU-ECP     4     60
g potential
  5
1    622.6287956            -60.0000000
2    136.2843607           -555.5292312
2     33.1549781           -168.0019785
2      9.9894895            -63.0399875
2      3.0481312             -4.2516681
s-g potential
  6
0    194.7374304              3.0000000
1    351.5327447             38.6020880
2    122.3270402            864.8370727
2     32.0914617            374.9935520
2      5.2451812            289.7910100
2      4.4916223           -152.4532773
p-g potential
  4
0    420.6158801              2.0000000
1    109.4417815             73.8885625
2     34.1714280            326.6729872
2      5.9879750            126.5814591
d-g potential
  5
0    219.2666158              3.0000000
1    122.7297786             55.6793149
2     63.1063369            449.1987335
2     18.3684520            215.0269091
2      4.4972844             64.0840995
f-g potential
  5
0    108.5506037              4.0000000
1     56.4795527             51.8065335
2     29.2069159            231.2183113
2      9.5440543            119.0047386
2      2.8965118             15.3424188

