%nprocshared=4
%mem=6000MB
# opt freq=noraman b3lyp/gen 

Title Card Required

0 1
 N                  6.40952200    1.84741400    0.04424300
 C                  5.04482200    1.37125000    0.27775500
 C                  4.59848600    0.39628000   -0.82743400
 O                  4.87590400    0.62856200   -1.99867500
 C                  4.10710800    2.59911100    0.28326500
 O                  2.75259600    2.27253200    0.55428000
 N                  3.89825700   -0.74545900   -0.50470700
 C                  3.51496000   -1.24076300    0.80790300
 C                  2.36355100   -0.47681500    1.48229200
 O                  2.57113000    0.12599300    2.53288500
 N                  1.10305000   -0.48677300    0.93310200
 C                  0.71358400   -0.72855200   -0.46084900
 C                 -0.72415200   -0.25633100   -0.71042900
 O                 -1.05851200    0.21669100   -1.78606700
 C                  0.75879200   -2.21579400   -0.90357900
 S                 -0.27052300   -3.43623900    0.03556100
 N                 -1.60136800   -0.51245400    0.31493900
 C                 -2.99911100   -0.83240400    0.01003600
 C                 -3.22651500   -2.34323100    0.16587800
 C                 -3.91240600   -0.05572500    0.98052000
 O                 -4.24019400   -0.54309800    2.05635400
 N                 -4.29550600    1.19230900    0.59554500
 C                 -3.93551500    1.91226200   -0.60954000
 C                 -4.22655400    3.38758300   -0.39882200
 O                 -4.73595300    3.85741900    0.59426600
 O                 -3.86231400    4.11099800   -1.47278200
 H                  4.51226800    3.32372000    1.00158700
 H                  4.12224600    3.05821300   -0.71040100
 H                  2.70110600    1.97833000    1.47996400
 H                  5.00329400    0.90802500    1.26906600
 H                  6.49622800    2.04206300   -0.95430200
 H                  7.07402900    1.09947400    0.23740100
 H                  4.34829900   -1.18465700    1.51254400
 H                  3.25503600   -2.29868700    0.70540000
 H                  3.69955200   -1.31875400   -1.31597400
 H                  1.77194700   -2.61868100   -0.81666100
 H                  0.47884800   -2.26712400   -1.95940800
 H                  1.34992600   -0.15718100   -1.14399300
 H                  0.52564600    0.19194700    1.42059800
 H                 -4.24275700   -2.60807500   -0.14880200
 H                 -3.13125300   -2.63557100    1.21388800
 H                 -3.16057000   -0.53076600   -1.02633500
 H                 -1.22681000   -1.02534100    1.10685700
 H                 -4.51486900    1.58476400   -1.48588500
 H                 -2.87925400    1.79159700   -0.87472900
 H                 -4.81528300    1.72653400    1.28578200
 H                 -4.08420100    5.04111600   -1.27592800
 Se                -2.15226900   -3.41502400   -0.88722200

C H N O S Se 0
6-31g(d)
****

