%mem=50000MB
%nprocshared=15
# opt freq=noraman b3lyp/gen pseudo=read

Title Card Required

0 1
 Au                -3.12798800   -0.21853000    0.08030200
 C                 -6.19138100    1.10375500   -1.26988600
 H                 -6.77053700    1.19135300   -0.34415500
 H                 -6.09180300    0.04201900   -1.49858500
 C                 -4.71392300    2.75740200    0.58400700
 H                 -3.69925600    2.87024300    0.99117100
 H                 -5.30571800    2.18720200    1.30658400
 C                 -6.82988900    1.86817000   -2.43789300
 H                 -6.94388700    2.93294800   -2.22182500
 H                 -6.23319700    1.75641100   -3.35070100
 H                 -7.82699500    1.44431200   -2.63674400
 C                 -5.33987500    4.10796600    0.26412700
 H                 -5.38557300    4.70855700    1.17985500
 H                 -4.74933900    4.66192700   -0.47223500
 H                 -6.35796500    4.00817600   -0.11239900
 N                  7.88767500    2.93730200   -0.57929100
 C                  6.46331400    2.61693100   -0.64995400
 C                  6.13887500    1.25705000   -0.02978800
 O                  6.85924400    0.29449900   -0.32644000
 C                  6.05399100    2.57563000   -2.14943900
 O                  4.74589700    2.10405300   -2.35263400
 N                  5.09507900    1.08974900    0.82959300
 C                  4.17768000    2.07489100    1.39737600
 C                  2.94910000    2.35290800    0.52292600
 O                  3.03197300    3.18057600   -0.39408500
 N                  1.75899000    1.71221900    0.76482600
 C                  1.34436600    0.79605100    1.83029300
 C                  1.58981400   -0.70716000    1.55182300
 O                  1.91004600   -1.44937300    2.47275700
 C                 -0.14506900    1.06119800    2.26395500
 S                 -1.44448600    1.50283600    0.91654500
 N                  1.38292400   -1.12975900    0.26407600
 C                  0.90135900   -2.49591100    0.02628700
 C                 -0.62503200   -2.55676000   -0.19986000
 C                  1.59841400   -3.09279500   -1.21929800
 O                  1.01999100   -3.09794500   -2.30258700
 N                  2.83419900   -3.64449500   -1.05777800
 C                  3.77938700   -3.38304200    0.01823800
 C                  4.92536100   -2.52619100   -0.50560100
 O                  5.23616500   -2.47236100   -1.67687100
 O                  5.56482100   -1.87176000    0.48217600
 H                  6.22827700    3.57378200   -2.56709300
 H                  6.71905200    1.87631200   -2.66552200
 H                  4.12574900    2.69303800   -1.87859600
 H                  5.90481600    3.42420200   -0.16789900
 H                  8.41160000    2.11254000   -0.87258500
 H                  8.16338600    3.12083200    0.38415300
 H                  4.68657400    3.03168200    1.51514900
 H                  3.90232400    1.72437000    2.39671800
 H                  4.94432900    0.11879800    1.10024800
 H                 -0.12780700    2.00994800    2.83325800
 H                 -0.47270700    0.24796500    2.92535100
 H                  1.93402000    0.99760700    2.74216500
 H                  1.01599200    2.00396500    0.12634500
 H                 -0.93697200   -3.59121300   -0.36573500
 H                 -0.87505200   -2.00550300   -1.10861200
 H                  1.17389800   -3.06589000    0.91788900
 H                  1.05695200   -0.43517600   -0.39809400
 H                  4.20876500   -4.33118200    0.39106100
 H                  3.29893600   -2.90000200    0.87001800
 H                  3.27425300   -3.86424100   -1.94721600
 H                  6.22711600   -1.23935900    0.08129800
 Se                -1.60561100   -1.75712900    1.32111200
 Cl                -4.46034100   -1.88167100   -1.07435200
 S                 -4.48224800    1.68165800   -0.90363100

C H N O S Se Cl 0
6-31g(d)
****
Au     0
S    1   1.00
      2.8090000              1.0000000
S    1   1.00
      1.5950000              1.0000000
S    1   1.00
      0.5327000              1.0000000
S    1   1.00
      0.2826000              1.0000000
S    1   1.00
      0.0598000              1.0000000
P    1   1.00
      3.6840000              1.0000000
P    1   1.00
      1.6660000              1.0000000
P    1   1.00
      0.5989000              1.0000000
P    1   1.00
      0.0977000              1.0000000
P    1   1.00
      0.0279000              1.0000000
D    1   1.00
      1.2870000              1.0000000
D    1   1.00
      0.4335000              1.0000000
D    1   1.00
      0.1396000              1.0000000
F    1   1.00
      1.0500000              1.0000000
****

AU     0
AU-ECP     4     60
g potential
  5
1    622.6287956            -60.0000000
2    136.2843607           -555.5292312
2     33.1549781           -168.0019785
2      9.9894895            -63.0399875
2      3.0481312             -4.2516681
s-g potential
  6
0    194.7374304              3.0000000
1    351.5327447             38.6020880
2    122.3270402            864.8370727
2     32.0914617            374.9935520
2      5.2451812            289.7910100
2      4.4916223           -152.4532773
p-g potential
  4
0    420.6158801              2.0000000
1    109.4417815             73.8885625
2     34.1714280            326.6729872
2      5.9879750            126.5814591
d-g potential
  5
0    219.2666158              3.0000000
1    122.7297786             55.6793149
2     63.1063369            449.1987335
2     18.3684520            215.0269091
2      4.4972844             64.0840995
f-g potential
  5
0    108.5506037              4.0000000
1     56.4795527             51.8065335
2     29.2069159            231.2183113
2      9.5440543            119.0047386
2      2.8965118             15.3424188

