%mem=50000MB
%nprocshared=15
%chk=au-1to3-ts-2-af57-cterm-se-wat-ts.chk
# opt=(ts,readfc,noeigentest) freq=noraman b3lyp/gen pseudo=read

Title Card Required

0 1
Au    -3.141456    -0.175974     0.044009
 C    -6.160041     1.099054    -0.674863
 H    -6.314494     1.174161     0.404216
 H    -6.159210     0.039797    -0.949778
 C    -4.167031     3.143824    -0.017040
 H    -3.094329     3.151714     0.208090
 H    -4.699544     3.015903     0.934441
 C    -7.207564     1.874968    -1.469751
 H    -7.261110     2.927175    -1.175094
 H    -7.007023     1.823603    -2.543907
 H    -8.193032     1.429382    -1.288456
 C    -4.568831     4.425200    -0.749815
 H    -4.287061     5.296686    -0.142291
 H    -4.059349     4.507048    -1.717303
 H    -5.648201     4.471759    -0.928431
 N     7.738148     3.009423    -0.601792
 C     6.313538     2.682825    -0.596738
 C     6.039919     1.271528    -0.061890
 O     6.737912     0.336166    -0.481776
 C     5.788683     2.752585    -2.051705
 O     4.460063     2.300901    -2.188521
 N     5.063340     1.038783     0.863346
 C     4.202355     1.994525     1.544371
 C     2.900793     2.308368     0.782267
 O     2.873331     3.219613    -0.042916
 N     1.783265     1.561705     1.029722
 C     1.544829     0.552215     2.049673
 C     1.679637    -0.915663     1.604226
 O     1.957964    -1.767132     2.441474
 C     0.151104     0.747063     2.696351
 S    -1.291289     0.974142     1.548834
 N     1.394112    -1.203327     0.300405
 C     0.850432    -2.518963    -0.044047
 C    -0.672883    -2.451952    -0.214771
 C     1.477572    -3.042402    -1.358170
 O     0.854260    -2.978996    -2.409190
 N     2.719353    -3.611870    -1.282355
 C     3.718964    -3.413030    -0.246132
 C     4.821951    -2.485787    -0.759484
 O     5.061459    -2.337713    -1.936801
 O     5.490303    -1.893011     0.241988
 H     5.931993     3.783930    -2.405834
 H     6.405064     2.092485    -2.670564
 H     3.883612     2.867729    -1.644454
 H     5.788775     3.441961    -0.009729
 H     8.241899     2.215387    -0.997430
 H     8.081638     3.116604     0.351396
 H     4.716825     2.949013     1.660180
 H     4.010530     1.608590     2.548966
 H     4.927768     0.054893     1.081362
 H     0.150452     1.693712     3.251242
 H    -0.044745    -0.069489     3.393197
 H     2.266696     0.667128     2.861511
 H     0.966518     1.872065     0.506904
 H    -1.110504    -3.448817    -0.323998
 H    -0.952458    -1.891006    -1.105403
 H     1.110412    -3.173800     0.789974
 H     1.147552    -0.433565    -0.311014
 H     4.182906    -4.373371     0.018779
 H     3.279705    -3.012884     0.667583
 H     3.114384    -3.778905    -2.204298
 H     6.130534    -1.219479    -0.143465
Se    -1.615119    -1.675296     1.366921
Cl    -4.219055    -1.882587    -1.532083
 S    -4.417685     1.608286    -1.034912

C H N O S Se Cl 0
6-31g(d)
****
Au     0
S    1   1.00
      2.8090000              1.0000000
S    1   1.00
      1.5950000              1.0000000
S    1   1.00
      0.5327000              1.0000000
S    1   1.00
      0.2826000              1.0000000
S    1   1.00
      0.0598000              1.0000000
P    1   1.00
      3.6840000              1.0000000
P    1   1.00
      1.6660000              1.0000000
P    1   1.00
      0.5989000              1.0000000
P    1   1.00
      0.0977000              1.0000000
P    1   1.00
      0.0279000              1.0000000
D    1   1.00
      1.2870000              1.0000000
D    1   1.00
      0.4335000              1.0000000
D    1   1.00
      0.1396000              1.0000000
F    1   1.00
      1.0500000              1.0000000
****

AU     0
AU-ECP     4     60
g potential
  5
1    622.6287956            -60.0000000
2    136.2843607           -555.5292312
2     33.1549781           -168.0019785
2      9.9894895            -63.0399875
2      3.0481312             -4.2516681
s-g potential
  6
0    194.7374304              3.0000000
1    351.5327447             38.6020880
2    122.3270402            864.8370727
2     32.0914617            374.9935520
2      5.2451812            289.7910100
2      4.4916223           -152.4532773
p-g potential
  4
0    420.6158801              2.0000000
1    109.4417815             73.8885625
2     34.1714280            326.6729872
2      5.9879750            126.5814591
d-g potential
  5
0    219.2666158              3.0000000
1    122.7297786             55.6793149
2     63.1063369            449.1987335
2     18.3684520            215.0269091
2      4.4972844             64.0840995
f-g potential
  5
0    108.5506037              4.0000000
1     56.4795527             51.8065335
2     29.2069159            231.2183113
2      9.5440543            119.0047386
2      2.8965118             15.3424188

