%mem=50000MB
%nprocshared=15
# opt freq=noraman b3lyp/gen pseudo=read

Title Card Required

0 1
 Au                -2.94549800    0.00260100    0.19077700
 N                  7.08246100    2.90212000   -0.18124500
 C                  5.67022200    2.55386000   -0.05386500
 C                  5.46094700    1.04993200    0.16050900
 O                  6.11151400    0.25498100   -0.54206200
 C                  4.94890400    2.95523900   -1.35795900
 O                  3.59589600    2.55400200   -1.39771600
 N                  4.59437700    0.57538500    1.10719700
 C                  3.79079100    1.31538900    2.06050600
 C                  2.41620800    1.75986400    1.52131700
 O                  2.28303700    2.89423500    1.06014600
 N                  1.36913200    0.89128700    1.54131900
 C                  1.18114700   -0.37206900    2.22790000
 C                  1.31392100   -1.66534700    1.39750500
 O                  1.73280900   -2.67953900    1.94273300
 C                 -0.20010800   -0.40869700    2.96261400
 S                 -1.70921600    0.55800800    2.33132500
 N                  0.84170300   -1.63696500    0.11714700
 C                  0.29621700   -2.85336200   -0.49350700
 C                 -1.24813100   -2.85029200   -0.62040400
 C                  0.88577400   -3.08138300   -1.90454600
 O                  0.23060100   -2.83864800   -2.91283900
 N                  2.14482200   -3.62471900   -1.99567600
 C                  3.20394600   -3.57545300   -1.00384400
 C                  4.18588500   -2.45841300   -1.32779300
 O                  4.27083100   -1.94959300   -2.42276300
 O                  4.95266700   -2.13487200   -0.27255100
 H                  5.07800200    4.03926100   -1.48831100
 H                  5.43935000    2.46127600   -2.19686400
 H                  3.12421500    2.98725700   -0.65986300
 H                  5.25086000    3.13448900    0.76598000
 H                  7.51326100    2.22689700   -0.81308900
 H                  7.56156300    2.79960100    0.71194700
 H                  4.29977700    2.22297700    2.36155300
 H                  3.68179100    0.68381800    2.95729900
 H                  4.49441700   -0.44543800    1.09737800
 H                 -0.06541000    0.13684500    3.92438100
 H                 -0.48008100   -1.46071600    3.17180400
 H                  1.94154800   -0.49550800    3.02264600
 H                  0.49053000    1.33387800    1.25579400
 H                 -1.58200800   -3.87235100   -0.84346000
 H                 -1.57294500   -2.24956800   -1.47216500
 H                  0.60927600   -3.66126700    0.16827900
 H                  0.52048700   -0.74272200   -0.24986200
 H                  3.76161700   -4.52162900   -1.00912500
 H                  2.79768300   -3.46201200    0.00078700
 H                  2.48872300   -3.59820600   -2.95880800
 H                  5.53712400   -1.35967600   -0.53008700
 Se                -2.17344600   -2.21585700    1.01064500
 Cl                -3.90386800   -0.62743700   -1.94974000
 C                 -2.58836700    2.76531500   -2.54490500
 C                 -3.92074000    2.82928700   -1.79151200
 C                 -2.30168500    3.34997000    0.47947800
 C                 -1.13619100    3.21517200   -0.49542500
 C                 -1.48665300    3.63420800   -1.93302800
 H                 -4.34714000    3.83419300   -1.80317900
 H                 -4.65294800    2.13157500   -2.20830700
 H                 -2.26870500    1.72573700   -2.61432200
 H                 -2.79166700    3.09883300   -3.57416500
 H                 -2.64840200    4.38757500    0.56793700
 H                 -2.04298300    2.98909800    1.47992800
 H                 -0.29550500    3.80975000   -0.11348000
 H                 -0.80075000    2.16243400   -0.49817300
 H                 -1.78620700    4.68560900   -1.93869000
 H                 -0.58161300    3.55671200   -2.54929800
 S                 -3.79862300    2.37372500   -0.00765200

C H N O S Se Cl 0
6-31g(d)
****
Au     0
S    1   1.00
      2.8090000              1.0000000
S    1   1.00
      1.5950000              1.0000000
S    1   1.00
      0.5327000              1.0000000
S    1   1.00
      0.2826000              1.0000000
S    1   1.00
      0.0598000              1.0000000
P    1   1.00
      3.6840000              1.0000000
P    1   1.00
      1.6660000              1.0000000
P    1   1.00
      0.5989000              1.0000000
P    1   1.00
      0.0977000              1.0000000
P    1   1.00
      0.0279000              1.0000000
D    1   1.00
      1.2870000              1.0000000
D    1   1.00
      0.4335000              1.0000000
D    1   1.00
      0.1396000              1.0000000
F    1   1.00
      1.0500000              1.0000000
****

AU     0
AU-ECP     4     60
g potential
  5
1    622.6287956            -60.0000000
2    136.2843607           -555.5292312
2     33.1549781           -168.0019785
2      9.9894895            -63.0399875
2      3.0481312             -4.2516681
s-g potential
  6
0    194.7374304              3.0000000
1    351.5327447             38.6020880
2    122.3270402            864.8370727
2     32.0914617            374.9935520
2      5.2451812            289.7910100
2      4.4916223           -152.4532773
p-g potential
  4
0    420.6158801              2.0000000
1    109.4417815             73.8885625
2     34.1714280            326.6729872
2      5.9879750            126.5814591
d-g potential
  5
0    219.2666158              3.0000000
1    122.7297786             55.6793149
2     63.1063369            449.1987335
2     18.3684520            215.0269091
2      4.4972844             64.0840995
f-g potential
  5
0    108.5506037              4.0000000
1     56.4795527             51.8065335
2     29.2069159            231.2183113
2      9.5440543            119.0047386
2      2.8965118             15.3424188

