%mem=50000MB
%nprocshared=15
%chk=au-1to3-ts-2-af-cl-cterm-se-wat-ts.chk
# opt=(ts,readfc,noeigentest) freq=noraman rb3lyp/gen pseudo=read

Title Card Required

0 1
            79           0       -3.338844    0.126903   -0.310416
            15           0       -4.553252   -1.513037    0.873202
             6           0       -5.391197   -2.720035   -0.256162
             1           0       -5.925422   -3.454122    0.360262
             1           0       -4.586929   -3.259564   -0.771693
             6           0       -5.886230   -0.783032    1.925202
             1           0       -6.477250   -1.600652    2.357643
             1           0       -6.526193   -0.224404    1.234741
             6           0       -3.483763   -2.549431    1.980254
             1           0       -2.983969   -1.849413    2.659500
             1           0       -2.694566   -2.972726    1.345875
             6           0       -6.343940   -2.077831   -1.274405
             1           0       -7.193034   -1.594417   -0.781613
             1           0       -5.841571   -1.319455   -1.882243
             1           0       -6.734937   -2.850105   -1.945393
             6           0       -4.189679   -3.654730    2.777386
             1           0       -3.461534   -4.181202    3.404040
             1           0       -4.960629   -3.244271    3.437785
             1           0       -4.659247   -4.398489    2.125062
             6           0       -5.367386    0.168406    3.011048
             1           0       -4.837154    1.012135    2.559465
             1           0       -6.211001    0.573572    3.579727
             1           0       -4.698559   -0.331364    3.720534
             7           0        8.382560   -2.940228   -0.898187
             6           0        7.136062   -2.558001   -0.229603
             6           0        6.941195   -1.034668   -0.189861
             8           0        7.834885   -0.308714    0.219034
             6           0        7.192430   -3.075372    1.227193
             8           0        6.179298   -2.554020    2.056674
             7           0        5.751187   -0.488249   -0.618154
             6           0        4.669439   -1.078182   -1.378799
             6           0        3.575230   -1.752316   -0.524270
             8           0        3.847543   -2.478074    0.428056
             7           0        2.270960   -1.585504   -0.906314
             6           0        1.725384   -0.663341   -1.899320
             6           0        1.803334    0.804776   -1.470248
             8           0        2.176400    1.688141   -2.290846
             6           0        0.275874   -1.061667   -2.257871
            16           0       -0.961050   -1.048540   -0.864773
             7           0        1.453702    1.086758   -0.188090
             6           0        0.901772    2.390270    0.162934
             6           0       -0.632162    2.309669    0.274506
             6           0        1.479921    2.971277    1.475816
             8           0        0.734567    3.395922    2.343731
             7           0        2.840184    3.030928    1.588467
             6           0        3.845334    2.492135    0.700879
             6           0        5.229406    2.836285    1.205024
             8           0        5.485314    3.430203    2.233969
             8           0        6.148819    2.340297    0.351422
             1           0        7.193173   -4.176256    1.191088
             1           0        8.145476   -2.754799    1.661528
             1           0        5.326256   -2.651041    1.595347
             1           0        6.305678   -3.053061   -0.742191
             1           0        9.117672   -2.328492   -0.542306
             1           0        8.320304   -2.750964   -1.898099
             1           0        5.046989   -1.851848   -2.059809
             1           0        4.249604   -0.291837   -2.009895
             1           0        5.755174    0.524446   -0.531323
             1           0        0.275289   -2.101415   -2.606456
             1           0       -0.077134   -0.429226   -3.073444
             1           0        2.294089   -0.739541   -2.830399
             1           0        1.613079   -2.083847   -0.313645
             1           0       -1.079683    3.294943    0.412368
             1           0       -0.942805    1.698661    1.124443
             1           0        1.196497    3.062997   -0.652456
             1           0        1.061374    0.303197    0.331717
             1           0        3.746260    2.858027   -0.329231
             1           0        3.798513    1.397408    0.648597
             1           0        3.186859    3.435511    2.453718
             1           0        7.037814    2.360965    0.753003
            34           0       -1.491341    1.547572   -1.347563
            17           0       -5.332914    1.716402   -0.590970

C H N O S Se P Cl 0
6-31g(d)
****
Au     0
S    1   1.00
      2.8090000              1.0000000
S    1   1.00
      1.5950000              1.0000000
S    1   1.00
      0.5327000              1.0000000
S    1   1.00
      0.2826000              1.0000000
S    1   1.00
      0.0598000              1.0000000
P    1   1.00
      3.6840000              1.0000000
P    1   1.00
      1.6660000              1.0000000
P    1   1.00
      0.5989000              1.0000000
P    1   1.00
      0.0977000              1.0000000
P    1   1.00
      0.0279000              1.0000000
D    1   1.00
      1.2870000              1.0000000
D    1   1.00
      0.4335000              1.0000000
D    1   1.00
      0.1396000              1.0000000
F    1   1.00
      1.0500000              1.0000000
****

AU     0
AU-ECP     4     60
g potential
  5
1    622.6287956            -60.0000000
2    136.2843607           -555.5292312
2     33.1549781           -168.0019785
2      9.9894895            -63.0399875
2      3.0481312             -4.2516681
s-g potential
  6
0    194.7374304              3.0000000
1    351.5327447             38.6020880
2    122.3270402            864.8370727
2     32.0914617            374.9935520
2      5.2451812            289.7910100
2      4.4916223           -152.4532773
p-g potential
  4
0    420.6158801              2.0000000
1    109.4417815             73.8885625
2     34.1714280            326.6729872
2      5.9879750            126.5814591
d-g potential
  5
0    219.2666158              3.0000000
1    122.7297786             55.6793149
2     63.1063369            449.1987335
2     18.3684520            215.0269091
2      4.4972844             64.0840995
f-g potential
  5
0    108.5506037              4.0000000
1     56.4795527             51.8065335
2     29.2069159            231.2183113
2      9.5440543            119.0047386
2      2.8965118             15.3424188

Au 1.78

