%mem=10000MB
%nprocshared=8
# opt freq=noraman b3lyp/gen pseudo=read

Title Card Required

0 1
             15           0        1.332804    0.121609   -0.036896
              6           0        2.065632   -0.522706    1.536024
              6           0        1.725641   -1.989090    1.831970
              1           0        1.690353    0.121737    2.338426
              1           0        3.150779   -0.374345    1.486904
              1           0        2.166239   -2.285131    2.789681
              1           0        0.642617   -2.140530    1.896321
              1           0        2.118291   -2.662867    1.063328
              6           0        1.960656    1.854910   -0.203653
              6           0        1.354648    2.842875    0.801902
              1           0        1.732426    2.166886   -1.229429
              1           0        3.052312    1.828002   -0.107212
              1           0        1.755501    3.845906    0.621801
              1           0        0.264685    2.890572    0.704595
              1           0        1.592776    2.571348    1.835473
              6           0        2.101810   -0.836827   -1.424778
              6           0        3.634784   -0.826724   -1.496865
              1           0        1.667036   -0.430226   -2.345324
              1           0        1.724482   -1.861543   -1.334684
              1           0        3.962510   -1.437998   -2.344578
              1           0        4.030100    0.182870   -1.644995
              1           0        4.091073   -1.244051   -0.593492
             79           0       -0.943822   -0.032041   -0.082339
             17           0       -3.301786   -0.211658   -0.138011

C H P Cl 0
6-31g(d)
****
Au     0
S    1   1.00
      2.8090000              1.0000000
S    1   1.00
      1.5950000              1.0000000
S    1   1.00
      0.5327000              1.0000000
S    1   1.00
      0.2826000              1.0000000
S    1   1.00
      0.0598000              1.0000000
P    1   1.00
      3.6840000              1.0000000
P    1   1.00
      1.6660000              1.0000000
P    1   1.00
      0.5989000              1.0000000
P    1   1.00
      0.0977000              1.0000000
P    1   1.00
      0.0279000              1.0000000
D    1   1.00
      1.2870000              1.0000000
D    1   1.00
      0.4335000              1.0000000
D    1   1.00
      0.1396000              1.0000000
F    1   1.00
      1.0500000              1.0000000
****

AU     0
AU-ECP     4     60
g potential
  5
1    622.6287956            -60.0000000
2    136.2843607           -555.5292312
2     33.1549781           -168.0019785
2      9.9894895            -63.0399875
2      3.0481312             -4.2516681
s-g potential
  6
0    194.7374304              3.0000000
1    351.5327447             38.6020880
2    122.3270402            864.8370727
2     32.0914617            374.9935520
2      5.2451812            289.7910100
2      4.4916223           -152.4532773
p-g potential
  4
0    420.6158801              2.0000000
1    109.4417815             73.8885625
2     34.1714280            326.6729872
2      5.9879750            126.5814591
d-g potential
  5
0    219.2666158              3.0000000
1    122.7297786             55.6793149
2     63.1063369            449.1987335
2     18.3684520            215.0269091
2      4.4972844             64.0840995
f-g potential
  5
0    108.5506037              4.0000000
1     56.4795527             51.8065335
2     29.2069159            231.2183113
2      9.5440543            119.0047386
2      2.8965118             15.3424188

Au 1.78

