%chk=au-1to3-ts-2-af50-c-term-level3-freq-se.chk
%mem=30000MB
%nprocshared=8
# opt=(ts,readfc,noeigentest) freq=noraman b3lyp/gen pseudo=read

Title Card Required

0 1
 Au                -0.30185000    2.17993000   -0.26197600
 P                 -0.07923600    4.46219900   -0.91583000
 C                 -2.09922300    5.64472300    0.46656100
 H                 -2.61283600    5.70641000   -0.49238200
 H                 -2.49354600    4.77604500    1.01430400
 H                 -2.31811300    6.55106800    1.04255900
 C                  1.92825400    6.37568600   -1.11404700
 H                  2.89616700    6.50718800   -0.61325500
 H                  2.03355700    6.72785200   -2.15188500
 H                  1.18697600    6.99205000   -0.60426600
 C                 -1.37766300    3.87447400   -3.26935600
 H                 -1.38978500    2.87371400   -2.83580600
 H                 -2.38592300    4.08236400   -3.64701400
 H                 -0.67721600    3.89889800   -4.11825900
 N                  8.54009100   -2.60715100   -1.03495200
 C                  7.57585800   -1.69608000   -0.41214500
 C                  6.59427800   -2.46852300    0.49002400
 O                  6.09240200   -3.51510700    0.08325000
 C                  6.81350500   -0.98255100   -1.55559300
 O                  5.89462600    0.01098300   -1.11500700
 N                  6.30212800   -2.01962500    1.75375200
 C                  6.74028000   -0.79466400    2.41180900
 C                  6.20769500    0.48561700    1.74993000
 O                  6.98258400    1.25483800    1.17504200
 N                  4.87011600    0.71961500    1.77360600
 C                  3.79963100   -0.08954100    2.33518800
 C                  3.33023000   -1.30083700    1.50496900
 O                  2.78026100   -2.23384500    2.08628400
 C                  2.56474900    0.81242400    2.59870900
 S                  1.99274900    1.79946300    1.13161700
 N                  3.44330700   -1.19854700    0.15524100
 C                  2.48416800   -1.86358100   -0.71664200
 C                  1.40294400   -0.86228400   -1.15586700
 C                  3.20918600   -2.41395500   -1.96088500
 O                  3.48434000   -1.66872900   -2.89639500
 N                  3.50913000   -3.74015300   -1.97062500
 C                  3.45184100   -4.67428600   -0.86292400
 C                  4.40514300   -5.81817300   -1.15100700
 O                  5.05125600   -5.94677500   -2.16744900
 O                  4.42298200   -6.70316800   -0.13674700
 H                  7.56782500   -0.55876400   -2.23005100
 H                  6.22473700   -1.71289600   -2.11635200
 H                  6.39914800    0.70085200   -0.64532600
 H                  8.13037800   -0.93943500    0.15179000
 H                  8.02293800   -3.42119100   -1.36976300
 H                  9.18809400   -2.95881600   -0.33166200
 H                  7.82957600   -0.70672100    2.40891000
 H                  6.41743500   -0.85585900    3.45584500
 H                  5.61810300   -2.59737400    2.23044200
 H                  2.83344100    1.56652600    3.34731700
 H                  1.75300700    0.19998400    2.99268300
 H                  4.10829600   -0.48895500    3.30724500
 H                  4.58171300    1.52543000    1.22459200
 H                  0.68171500   -1.32390600   -1.83668700
 H                  1.85130200   -0.00860500   -1.66538300
 H                  2.03443500   -2.66514400   -0.12855200
 H                  4.05746400   -0.49931600   -0.26231400
 H                  2.44722600   -5.09952100   -0.72501500
 H                  3.75910300   -4.21799200    0.08134300
 H                  4.07683600   -4.04779600   -2.75562200
 H                  5.05303800   -7.40335300   -0.39169600
 Se                 0.33682600   -0.19832700    0.38863600
 N                 -1.03251800    4.87037200   -2.25240000
 N                  1.54173700    4.96434500   -1.05375300
 N                 -0.64221300    5.56491700    0.27076700
 C                 -1.09428500    6.24813200   -2.74313200
 H                 -0.38330300    6.42172600   -3.56517500
 H                 -2.10429700    6.45476300   -3.11960500
 H                 -0.88090100    6.95064100   -1.93568500
 C                  0.05658500    5.51417400    1.56434000
 H                 -0.28847000    4.67169600    2.18323600
 H                  1.13236200    5.41292500    1.41674100
 H                 -0.14094300    6.44540600    2.10797600
 C                  2.50037000    4.08758900   -1.72635800
 H                  2.59028700    4.32136700   -2.79851700
 H                  3.48860800    4.20617700   -1.26628100
 H                  2.20250100    3.04172900   -1.62081900
 Cl                -2.84950758    1.95338861   -0.37023420

C H N O S Se P Cl 0
6-31g(d)
****
Au     0
S    1   1.00
      2.8090000              1.0000000
S    1   1.00
      1.5950000              1.0000000
S    1   1.00
      0.5327000              1.0000000
S    1   1.00
      0.2826000              1.0000000
S    1   1.00
      0.0598000              1.0000000
P    1   1.00
      3.6840000              1.0000000
P    1   1.00
      1.6660000              1.0000000
P    1   1.00
      0.5989000              1.0000000
P    1   1.00
      0.0977000              1.0000000
P    1   1.00
      0.0279000              1.0000000
D    1   1.00
      1.2870000              1.0000000
D    1   1.00
      0.4335000              1.0000000
D    1   1.00
      0.1396000              1.0000000
F    1   1.00
      1.0500000              1.0000000
****

AU     0
AU-ECP     4     60
g potential
  5
1    622.6287956            -60.0000000
2    136.2843607           -555.5292312
2     33.1549781           -168.0019785
2      9.9894895            -63.0399875
2      3.0481312             -4.2516681
s-g potential
  6
0    194.7374304              3.0000000
1    351.5327447             38.6020880
2    122.3270402            864.8370727
2     32.0914617            374.9935520
2      5.2451812            289.7910100
2      4.4916223           -152.4532773
p-g potential
  4
0    420.6158801              2.0000000
1    109.4417815             73.8885625
2     34.1714280            326.6729872
2      5.9879750            126.5814591
d-g potential
  5
0    219.2666158              3.0000000
1    122.7297786             55.6793149
2     63.1063369            449.1987335
2     18.3684520            215.0269091
2      4.4972844             64.0840995
f-g potential
  5
0    108.5506037              4.0000000
1     56.4795527             51.8065335
2     29.2069159            231.2183113
2      9.5440543            119.0047386
2      2.8965118             15.3424188

