%mem=30000MB
%nprocshared=8
# opt freq=noraman b3lyp/gen pseudo=read

Title Card Required

0 1
Au     1.897503    -0.046044    -0.747781
 P     3.359530    -0.115968     1.238619
 C     5.705319    -0.697201    -0.010324
 H     5.586312    -1.692821     0.415471
 H     5.385238    -0.735688    -1.060464
 H     6.764782    -0.418371     0.026683
 C     4.006345     1.556228     3.353638
 H     3.749282     2.576324     3.664124
 H     4.032536     0.923108     4.254555
 H     5.001115     1.564667     2.908191
 C     2.439561    -2.609329     1.987569
 H     1.583517    -2.279106     1.400604
 H     2.788760    -3.566061     1.582112
 H     2.109373    -2.761169     3.025307
 N    -6.625731     0.462017     1.940845
 C    -5.265933     0.974748     1.729690
 C    -4.828751     0.796866     0.268337
 O    -4.895825    -0.319540    -0.254624
 C    -4.306298     0.187917     2.644469
 O    -2.949502     0.565825     2.496084
 N    -4.439933     1.878573    -0.476432
 C    -4.085476     3.224463    -0.029274
 C    -2.853989     3.261738     0.892610
 O    -2.989877     3.297900     2.120332
 N    -1.630263     3.257895     0.316911
 C    -1.319321     2.996325    -1.083522
 C    -1.896388     1.657060    -1.568859
 O    -2.602862     1.594196    -2.573846
 C     0.210409     3.077090    -1.328835
 S     1.289786     2.200468    -0.115294
 N    -1.606427     0.603506    -0.781981
 C    -1.803312    -0.754281    -1.227954
 C    -0.946049    -1.140606    -2.485656
 C    -1.436822    -1.639993    -0.034785
 O    -0.445208    -1.377398     0.651757
 N    -2.192582    -2.737440     0.189205
 C    -3.487752    -3.057450    -0.383848
 C    -4.061757    -4.241558     0.369983
 O    -3.518962    -4.806038     1.293463
 O    -5.262530    -4.594862    -0.123163
 H    -4.665873     0.296450     3.677755
 H    -4.361461    -0.872576     2.377695
 H    -2.884919     1.517550     2.697477
 H    -5.238956     2.026263     2.027934
 H    -6.713569    -0.407148     1.413127
 H    -7.305770     1.106118     1.539793
 H    -4.899545     3.682873     0.537119
 H    -3.931438     3.824429    -0.931245
 H    -4.091097     1.617953    -1.396203
 H     0.527193     4.123041    -1.250190
 H     0.414134     2.730266    -2.343516
 H    -1.781758     3.757133    -1.722413
 H    -0.867763     3.144632     0.981557
 H    -1.558260    -1.002912    -3.380781
 H    -0.633549    -2.186103    -2.434343
 H    -2.856346    -0.872689    -1.494908
 H    -0.926804     0.713455    -0.035889
 H    -3.419472    -3.337730    -1.443842
 H    -4.190442    -2.216622    -0.304801
 H    -1.895657    -3.334790     0.955683
 H    -5.574354    -5.349234     0.412132
Se     0.633647    -0.017991    -2.909501
 N     3.525812    -1.624187     1.956448
 N     3.005766     1.089368     2.388186
 N     4.946079     0.298010     0.765287
 C     4.595307    -1.896000     2.918424
 H     4.210624    -1.905797     3.948914
 H     5.035371    -2.880532     2.710766
 H     5.382569    -1.144053     2.843728
 C     5.121555     1.648294     0.202953
 H     4.801289     1.696395    -0.848553
 H     4.546088     2.383528     0.765507
 H     6.184644     1.910277     0.253268
 C     1.669865     0.994126     2.995459
 H     1.680896     0.349319     3.887931
 H     1.335720     1.994025     3.293250
 H     0.942041     0.591519     2.288421
Cl     2.644665    -2.252364    -1.306384

C H N O S Se P Cl 0
6-31g(d)
****
Au     0
S    1   1.00
      2.8090000              1.0000000
S    1   1.00
      1.5950000              1.0000000
S    1   1.00
      0.5327000              1.0000000
S    1   1.00
      0.2826000              1.0000000
S    1   1.00
      0.0598000              1.0000000
P    1   1.00
      3.6840000              1.0000000
P    1   1.00
      1.6660000              1.0000000
P    1   1.00
      0.5989000              1.0000000
P    1   1.00
      0.0977000              1.0000000
P    1   1.00
      0.0279000              1.0000000
D    1   1.00
      1.2870000              1.0000000
D    1   1.00
      0.4335000              1.0000000
D    1   1.00
      0.1396000              1.0000000
F    1   1.00
      1.0500000              1.0000000
****

AU     0
AU-ECP     4     60
g potential
  5
1    622.6287956            -60.0000000
2    136.2843607           -555.5292312
2     33.1549781           -168.0019785
2      9.9894895            -63.0399875
2      3.0481312             -4.2516681
s-g potential
  6
0    194.7374304              3.0000000
1    351.5327447             38.6020880
2    122.3270402            864.8370727
2     32.0914617            374.9935520
2      5.2451812            289.7910100
2      4.4916223           -152.4532773
p-g potential
  4
0    420.6158801              2.0000000
1    109.4417815             73.8885625
2     34.1714280            326.6729872
2      5.9879750            126.5814591
d-g potential
  5
0    219.2666158              3.0000000
1    122.7297786             55.6793149
2     63.1063369            449.1987335
2     18.3684520            215.0269091
2      4.4972844             64.0840995
f-g potential
  5
0    108.5506037              4.0000000
1     56.4795527             51.8065335
2     29.2069159            231.2183113
2      9.5440543            119.0047386
2      2.8965118             15.3424188

