%chk=au-1to3-ts-2-af51-c-term-level3-freq-se-2.chk
%mem=30000MB
%nprocshared=8
# opt=(ts,readfc,noeigentest) freq=noraman b3lyp/gen pseudo=read

Title Card Required

0 1
 Au                -0.10843700    0.84942500    0.22603600
 P                  0.00227500    3.39350300   -0.06600000
 N                  9.80308800    1.93705400    1.47666500
 C                  8.70170500    1.20915300    0.84285800
 C                  7.40991400    1.32082600    1.67389900
 O                  7.46025700    1.24412900    2.89680400
 C                  9.11400300   -0.27587900    0.73503400
 O                  8.14471200   -1.08578800    0.08858500
 N                  6.19952600    1.51923200    1.04946500
 C                  5.92064300    1.70575700   -0.36585800
 C                  6.01571400    0.43423600   -1.22296300
 O                  6.86374000    0.36168700   -2.11041100
 N                  5.13914700   -0.60514800   -1.02318900
 C                  4.36988300   -0.93438100    0.18384800
 C                  3.84606800   -2.37796300    0.10945300
 O                  3.78688200   -3.08125400    1.10707500
 C                  3.14272600   -0.02061600    0.43790400
 S                  1.92445300    0.05178600   -0.95543100
 N                  3.38920300   -2.76119000   -1.12461700
 C                  2.31226800   -3.74673500   -1.24980400
 C                  1.00340300   -3.05156900   -1.63584500
 C                  2.71754000   -4.76781700   -2.33419300
 O                  2.46439000   -4.55812500   -3.51498600
 N                  3.39298800   -5.87389500   -1.91594100
 C                  3.81876700   -6.21272800   -0.57273700
 C                  4.89356100   -7.28156000   -0.65836100
 O                  5.27760400   -7.79739800   -1.68461300
 O                  5.35679800   -7.60143700    0.56359700
 H                 10.09003700   -0.31400700    0.23372800
 H                  9.23305100   -0.68178100    1.74481600
 H                  8.11522800   -0.82080800   -0.84691700
 H                  8.56615100    1.59852300   -0.17163700
 H                  9.75189500    1.74824000    2.47888400
 H                  9.65365900    2.94036600    1.37922200
 H                  6.62384600    2.40953600   -0.81776200
 H                  4.92568000    2.14869400   -0.46147900
 H                  5.43543400    1.61331400    1.70800300
 H                  3.44722500    1.01020800    0.63423600
 H                  2.62636100   -0.38641600    1.32958200
 H                  5.00823100   -0.88946600    1.07171800
 H                  5.44412500   -1.41029200   -1.56193700
 H                  0.20032700   -3.78864800   -1.74707300
 H                  1.09581700   -2.52286700   -2.58550700
 H                  2.21265000   -4.21608800   -0.26944800
 H                  3.37370000   -2.04645300   -1.84362600
 H                  2.99979600   -6.61862900    0.03999900
 H                  4.21719300   -5.35095300   -0.02520800
 H                  3.73593800   -6.48533300   -2.65105300
 H                  6.03262500   -8.29444800    0.43703100
 Se                 0.26404700   -1.82408000   -0.22848700
 C                 -1.26395300    3.98183300   -1.25759800
 C                 -1.02934600    5.04018300   -2.15136300
 C                 -2.51618100    3.34300400   -1.25714100
 C                 -2.03435400    5.45409000   -3.02716000
 H                 -0.06398400    5.53658500   -2.16972100
 C                 -3.51720100    3.76536200   -2.13359300
 H                 -2.71232500    2.51621900   -0.58047300
 C                 -3.27803300    4.81841600   -3.01937900
 H                 -1.84307700    6.27274800   -3.71583600
 H                 -4.47688500    3.25627300   -2.12375600
 H                 -4.05656300    5.14122200   -3.70557900
 C                 -0.28363400    4.33149700    1.48472300
 C                  0.08485800    3.74034600    2.70352500
 C                 -0.85884000    5.61212500    1.48971700
 C                 -0.10168000    4.42480900    3.90530800
 H                  0.50237700    2.73674800    2.71384900
 C                 -1.04808900    6.29134000    2.69344100
 H                 -1.16702400    6.07301700    0.55610300
 C                 -0.66843600    5.70056700    3.90116900
 H                  0.18139100    3.95459100    4.84269800
 H                 -1.49799300    7.28038500    2.68811000
 H                 -0.82341600    6.22966600    4.83742000
 C                  1.60473100    3.99326600   -0.72394000
 C                  2.05008000    3.47787300   -1.95695700
 C                  2.43529100    4.87965400   -0.01870200
 C                  3.28068300    3.87105600   -2.48546300
 H                  1.42451400    2.78592000   -2.51285500
 C                  3.66959900    5.26241100   -0.54723600
 H                  2.11092400    5.28361200    0.93493100
 C                  4.09258500    4.76566200   -1.78291100
 H                  3.60410500    3.47728400   -3.44506800
 H                  4.29474000    5.96089300    0.00264200
 H                  5.04825200    5.07473600   -2.19760800
 Cl                -2.14118027    0.67102458    1.72170578

C H N O S Se P Cl 0
6-31g(d)
****
Au     0
S    1   1.00
      2.8090000              1.0000000
S    1   1.00
      1.5950000              1.0000000
S    1   1.00
      0.5327000              1.0000000
S    1   1.00
      0.2826000              1.0000000
S    1   1.00
      0.0598000              1.0000000
P    1   1.00
      3.6840000              1.0000000
P    1   1.00
      1.6660000              1.0000000
P    1   1.00
      0.5989000              1.0000000
P    1   1.00
      0.0977000              1.0000000
P    1   1.00
      0.0279000              1.0000000
D    1   1.00
      1.2870000              1.0000000
D    1   1.00
      0.4335000              1.0000000
D    1   1.00
      0.1396000              1.0000000
F    1   1.00
      1.0500000              1.0000000
****

AU     0
AU-ECP     4     60
g potential
  5
1    622.6287956            -60.0000000
2    136.2843607           -555.5292312
2     33.1549781           -168.0019785
2      9.9894895            -63.0399875
2      3.0481312             -4.2516681
s-g potential
  6
0    194.7374304              3.0000000
1    351.5327447             38.6020880
2    122.3270402            864.8370727
2     32.0914617            374.9935520
2      5.2451812            289.7910100
2      4.4916223           -152.4532773
p-g potential
  4
0    420.6158801              2.0000000
1    109.4417815             73.8885625
2     34.1714280            326.6729872
2      5.9879750            126.5814591
d-g potential
  5
0    219.2666158              3.0000000
1    122.7297786             55.6793149
2     63.1063369            449.1987335
2     18.3684520            215.0269091
2      4.4972844             64.0840995
f-g potential
  5
0    108.5506037              4.0000000
1     56.4795527             51.8065335
2     29.2069159            231.2183113
2      9.5440543            119.0047386
2      2.8965118             15.3424188

