%mem=30000MB
%nprocshared=8
# opt freq=noraman b3lyp/gen pseudo=read

Title Card Required

0 1
 Au                 1.51091400   -1.44837400   -0.34797400
 P                  3.51853100    0.09911000    0.09209200
 N                 -3.53456000    7.14348100   -0.44154200
 C                 -3.47573600    5.72329400   -0.08845100
 C                 -2.52388900    4.95658800   -1.02522400
 O                 -2.53268800    5.18779100   -2.22757000
 C                 -4.90099200    5.14140300   -0.22034400
 O                 -4.98910500    3.77351400    0.14718100
 N                 -1.65311200    4.02062100   -0.50608200
 C                 -1.44079000    3.61922200    0.86892900
 C                 -2.57780700    2.77476400    1.48248400
 O                 -3.23371800    3.22559800    2.41966300
 N                 -2.83708300    1.53039000    0.98942700
 C                 -2.49200300    0.96747400   -0.32565800
 C                 -3.25063400   -0.35427600   -0.53543800
 O                 -3.71175400   -0.66888500   -1.63180400
 C                 -0.97641000    0.70114600   -0.56004800
 S                 -0.12235100   -0.10905600    0.91752700
 N                 -3.33369500   -1.14500900    0.58016600
 C                 -3.36376500   -2.60094800    0.45868800
 C                 -2.00158200   -3.16609500    0.92339700
 C                 -4.54716500   -3.12516600    1.33713800
 O                 -4.38565700   -3.38074800    2.52454000
 N                 -5.78261900   -3.22488400    0.74486900
 C                 -6.19516100   -2.91168100   -0.60772300
 C                 -7.71621500   -2.80078300   -0.65108100
 O                 -8.45786700   -2.98614900    0.29031300
 O                 -8.14190300   -2.46844200   -1.88018200
 H                 -5.57450600    5.77551400    0.38099700
 H                 -5.20964700    5.20080200   -1.26900800
 H                 -4.83038100    3.70724800    1.10683000
 H                 -3.16988000    5.63828900    0.95939600
 H                 -3.57022500    7.19026700   -1.46043700
 H                 -2.66521300    7.59166600   -0.17186600
 H                 -1.35118800    4.49354700    1.52827600
 H                 -0.50023800    3.07218300    0.92851900
 H                 -1.07609000    3.59740600   -1.22827300
 H                 -0.46656600    1.67022700   -0.83327800
 H                 -0.92007700    0.03086900   -1.44196700
 H                 -2.83505500    1.62837500   -1.12759600
 H                 -3.69501400    1.16371000    1.38594100
 H                 -2.06379800   -4.26826600    1.03302700
 H                 -1.69489800   -2.75543500    1.89380600
 H                 -3.53768500   -2.83214800   -0.59627900
 H                 -2.75027900   -0.83862500    1.36106300
 H                 -5.91353900   -3.70863500   -1.31945300
 H                 -5.75227600   -1.99187400   -0.98100500
 H                 -6.52748600   -3.46788400    1.39139600
 H                 -9.11595800   -2.42024100   -1.84210300
 Se                -0.51832000   -3.06674600   -0.50897500
 C                  4.75994400   -0.70256500    1.18094400
 C                  5.39897800   -0.01245900    2.22643500
 C                  5.12273300   -2.03142600    0.91944800
 C                  6.37871000   -0.64216600    2.98642000
 H                  5.12679500    1.01885900    2.44245700
 C                  6.09706100   -2.66077800    1.68029500
 H                  4.62952600   -2.58178100    0.10847600
 C                  6.72956600   -1.96996300    2.71960800
 H                  6.86668600   -0.10620900    3.79263400
 H                  6.36726100   -3.69530000    1.47282600
 H                  7.48531500   -2.46131800    3.32220500
 C                  4.43963000    0.68297100   -1.38258100
 C                  3.83253400    0.63957400   -2.64061500
 C                  5.74501600    1.19258000   -1.26017200
 C                  4.52282200    1.11775400   -3.76637100
 H                  2.84096600    0.21782300   -2.75579400
 C                  6.42151700    1.66679900   -2.37754000
 H                  6.23230900    1.21500900   -0.28506400
 C                  5.80512800    1.63250700   -3.63586300
 H                  4.03894400    1.06717600   -4.73694200
 H                  7.43195900    2.05673200   -2.27036000
 H                  6.33902000    1.99134700   -4.51159800
 C                  2.97520400    1.60857500    0.98428500
 C                  2.33066800    1.47234900    2.22499300
 C                  3.17065700    2.90138600    0.45449600
 C                  1.89739000    2.59757300    2.92454200
 H                  2.16659900    0.47960600    2.64765100
 C                  2.73508200    4.02342400    1.16273300
 H                  3.66065300    3.03139400   -0.50764900
 C                  2.09964700    3.87099500    2.39555000
 H                  1.40499100    2.47256700    3.88304300
 H                  2.89907200    5.00861800    0.74429800
 H                  1.76143800    4.74888900    2.95257300
 Cl                 2.78629200   -2.83278300   -1.83812400

C H N O S Se P Cl 0
6-31g(d)
****
Au     0
S    1   1.00
      2.8090000              1.0000000
S    1   1.00
      1.5950000              1.0000000
S    1   1.00
      0.5327000              1.0000000
S    1   1.00
      0.2826000              1.0000000
S    1   1.00
      0.0598000              1.0000000
P    1   1.00
      3.6840000              1.0000000
P    1   1.00
      1.6660000              1.0000000
P    1   1.00
      0.5989000              1.0000000
P    1   1.00
      0.0977000              1.0000000
P    1   1.00
      0.0279000              1.0000000
D    1   1.00
      1.2870000              1.0000000
D    1   1.00
      0.4335000              1.0000000
D    1   1.00
      0.1396000              1.0000000
F    1   1.00
      1.0500000              1.0000000
****

AU     0
AU-ECP     4     60
g potential
  5
1    622.6287956            -60.0000000
2    136.2843607           -555.5292312
2     33.1549781           -168.0019785
2      9.9894895            -63.0399875
2      3.0481312             -4.2516681
s-g potential
  6
0    194.7374304              3.0000000
1    351.5327447             38.6020880
2    122.3270402            864.8370727
2     32.0914617            374.9935520
2      5.2451812            289.7910100
2      4.4916223           -152.4532773
p-g potential
  4
0    420.6158801              2.0000000
1    109.4417815             73.8885625
2     34.1714280            326.6729872
2      5.9879750            126.5814591
d-g potential
  5
0    219.2666158              3.0000000
1    122.7297786             55.6793149
2     63.1063369            449.1987335
2     18.3684520            215.0269091
2      4.4972844             64.0840995
f-g potential
  5
0    108.5506037              4.0000000
1     56.4795527             51.8065335
2     29.2069159            231.2183113
2      9.5440543            119.0047386
2      2.8965118             15.3424188

