%mem=30000MB
%nprocshared=8
# opt freq=noraman b3lyp/gen pseudo=read

af

0 1
            79           0        1.806142   -0.000342    0.002710
            17           0        4.112146    0.018039    0.003171
            15           0       -0.485818   -0.014684    0.006634
             6           0       -1.162375   -1.715473    0.233470
             6           0       -0.259373   -2.739029    0.579018
             6           0       -2.522889   -2.043608    0.069659
             6           0       -0.707082   -4.052556    0.775989
             1           0        0.795839   -2.509103    0.696782
             6           0       -2.968733   -3.356137    0.266104
             1           0       -3.240679   -1.292993   -0.241767
             6           0       -2.062494   -4.363124    0.623608
             1           0        0.006533   -4.826923    1.043525
             1           0       -4.021318   -3.590912    0.131553
             1           0       -2.410738   -5.381670    0.773177
             6           0       -1.175500    1.039950    1.352593
             6           0       -0.328169    2.000393    1.935370
             6           0       -2.507438    0.950373    1.798954
             6           0       -0.806444    2.862625    2.929965
             1           0        0.707037    2.072778    1.613483
             6           0       -2.982562    1.811513    2.794516
             1           0       -3.173661    0.192663    1.400523
             6           0       -2.134539    2.772231    3.358871
             1           0       -0.137137    3.596898    3.369656
             1           0       -4.011933    1.725568    3.132347
             1           0       -2.505339    3.438765    4.132968
             6           0       -1.188093    0.644532   -1.565001
             6           0       -0.311455    0.897320   -2.632632
             6           0       -2.559367    0.902657   -1.738953
             6           0       -0.796871    1.377267   -3.852097
             1           0        0.752514    0.715221   -2.510794
             6           0       -3.041851    1.380359   -2.957715
             1           0       -3.253964    0.772404   -0.915694
             6           0       -2.162064    1.613589   -4.019025
             1           0       -0.104003    1.566680   -4.667023
             1           0       -4.103809    1.578164   -3.075090
             1           0       -2.540000    1.985750   -4.967335

C H P Cl 0
6-31g(d)
****
Au     0
S    1   1.00
      2.8090000              1.0000000
S    1   1.00
      1.5950000              1.0000000
S    1   1.00
      0.5327000              1.0000000
S    1   1.00
      0.2826000              1.0000000
S    1   1.00
      0.0598000              1.0000000
P    1   1.00
      3.6840000              1.0000000
P    1   1.00
      1.6660000              1.0000000
P    1   1.00
      0.5989000              1.0000000
P    1   1.00
      0.0977000              1.0000000
P    1   1.00
      0.0279000              1.0000000
D    1   1.00
      1.2870000              1.0000000
D    1   1.00
      0.4335000              1.0000000
D    1   1.00
      0.1396000              1.0000000
F    1   1.00
      1.0500000              1.0000000
****

AU     0
AU-ECP     4     60
g potential
  5
1    622.6287956            -60.0000000
2    136.2843607           -555.5292312
2     33.1549781           -168.0019785
2      9.9894895            -63.0399875
2      3.0481312             -4.2516681
s-g potential
  6
0    194.7374304              3.0000000
1    351.5327447             38.6020880
2    122.3270402            864.8370727
2     32.0914617            374.9935520
2      5.2451812            289.7910100
2      4.4916223           -152.4532773
p-g potential
  4
0    420.6158801              2.0000000
1    109.4417815             73.8885625
2     34.1714280            326.6729872
2      5.9879750            126.5814591
d-g potential
  5
0    219.2666158              3.0000000
1    122.7297786             55.6793149
2     63.1063369            449.1987335
2     18.3684520            215.0269091
2      4.4972844             64.0840995
f-g potential
  5
0    108.5506037              4.0000000
1     56.4795527             51.8065335
2     29.2069159            231.2183113
2      9.5440543            119.0047386
2      2.8965118             15.3424188

