%mem=30000MB
%nprocshared=8
# b3lyp/gen opt freq=noraman pseudo=read

Title Card Required

0 1
 Au                 3.11151900   -0.12066700   -0.05121800
 P                  4.19031100    1.60589500    1.00327700
 C                  4.06418700    3.21362400    0.08200200
 H                  4.62012800    3.97301100    0.64098700
 H                  3.00805300    3.50411000    0.10076500
 C                  5.99993700    1.28128400    1.17590400
 H                  6.47732300    2.19911000    1.54505600
 H                  6.35942500    1.11076600    0.15330100
 C                  3.54142200    1.98091500    2.69972200
 H                  3.54303900    1.02636100    3.23792300
 H                  2.48940600    2.25598000    2.56452200
 C                  4.57719200    3.15099500   -1.37078400
 H                  5.64851500    2.93405900   -1.42003700
 H                  4.06709100    2.37459900   -1.94997600
 H                  4.41363500    4.12259100   -1.85967100
 C                  4.28584100    3.05322000    3.50621700
 H                  3.80235100    3.19462000    4.47530500
 H                  5.32596700    2.77298100    3.69208900
 H                  4.28487400    4.02538500    2.99292700
 C                  6.33557100    0.06908800    2.05517600
 H                  5.89733500   -0.83667700    1.63869900
 H                  7.42009600   -0.06729400    2.09411000
 H                  5.97546300    0.19804300    3.08302000
 N                  2.00200418   -2.92588880   -0.28601850
 O                  2.58749378   -2.42060017    0.73933334
 O                  1.63705774   -4.11463289   -0.26448180
 O                  1.81690221   -2.19264765   -1.31667689

C H N O P 0
6-31g(d)
****
Au     0
S    1   1.00
      2.8090000              1.0000000
S    1   1.00
      1.5950000              1.0000000
S    1   1.00
      0.5327000              1.0000000
S    1   1.00
      0.2826000              1.0000000
S    1   1.00
      0.0598000              1.0000000
P    1   1.00
      3.6840000              1.0000000
P    1   1.00
      1.6660000              1.0000000
P    1   1.00
      0.5989000              1.0000000
P    1   1.00
      0.0977000              1.0000000
P    1   1.00
      0.0279000              1.0000000
D    1   1.00
      1.2870000              1.0000000
D    1   1.00
      0.4335000              1.0000000
D    1   1.00
      0.1396000              1.0000000
F    1   1.00
      1.0500000              1.0000000
****

AU     0
AU-ECP     4     60
g potential
  5
1    622.6287956            -60.0000000
2    136.2843607           -555.5292312
2     33.1549781           -168.0019785
2      9.9894895            -63.0399875
2      3.0481312             -4.2516681
s-g potential
  6
0    194.7374304              3.0000000
1    351.5327447             38.6020880
2    122.3270402            864.8370727
2     32.0914617            374.9935520
2      5.2451812            289.7910100
2      4.4916223           -152.4532773
p-g potential
  4
0    420.6158801              2.0000000
1    109.4417815             73.8885625
2     34.1714280            326.6729872
2      5.9879750            126.5814591
d-g potential
  5
0    219.2666158              3.0000000
1    122.7297786             55.6793149
2     63.1063369            449.1987335
2     18.3684520            215.0269091
2      4.4972844             64.0840995
f-g potential
  5
0    108.5506037              4.0000000
1     56.4795527             51.8065335
2     29.2069159            231.2183113
2      9.5440543            119.0047386
2      2.8965118             15.3424188

$nbo bndidx $end

