%mem=30000MB
%nprocshared=8
# opt freq=noraman b3lyp/gen pseudo=read

test

0 1
 Au                 2.88753300   -0.12884100   -0.18589000
 P                  4.20641200    1.58507300    0.96895200
 C                  4.06598000    3.20215500    0.08341900
 H                  4.56167900    3.97487500    0.69158600
 H                  2.99033500    3.43442600    0.08199300
 C                  6.01491800    1.25535000    1.18362200
 H                  6.47291400    2.16854500    1.58331900
 H                  6.41709900    1.09437400    0.18042200
 C                  3.51322700    1.90435700    2.66715300
 H                  3.49149100    0.94447600    3.19579400
 H                  2.46212500    2.18273800    2.51163100
 C                  4.60314300    3.19306900   -1.34841300
 H                  5.67420300    2.97462000   -1.37669600
 H                  4.09331200    2.44345500   -1.95682200
 H                  4.44282700    4.16980300   -1.80804600
 C                  4.23725300    2.96715400    3.50649500
 H                  3.73117500    3.07978100    4.47552800
 H                  5.27630700    2.68311600    3.71260000
 H                  4.23959900    3.94439500    3.02294100
 C                  6.32571500    0.05380600    2.09171900
 H                  5.86703000   -0.86692900    1.70493400
 H                  7.40986600   -0.10499800    2.13246100
 H                  5.98282200    0.21317000    3.11974200
 N                 -8.67295000    2.45151100   -0.55463800
 C                 -7.25875900    2.31037700   -0.21014200
 C                 -6.75978000    0.87086100   -0.37315400
 O                 -7.43185700   -0.04868700    0.13247800
 C                 -7.07896600    2.71099600    1.27191200
 O                 -5.79788200    2.43127300    1.78347800
 N                 -5.62090800    0.57229600   -1.06836400
 C                 -4.71313900    1.44589100   -1.81857800
 C                 -3.61300100    2.08283200   -0.95290900
 O                 -3.88882400    3.02447000   -0.21117400
 N                 -2.32519300    1.61450300   -1.01123800
 C                 -1.70037300    0.56215300   -1.82580700
 C                 -1.93459900   -0.87259600   -1.30707500
 O                 -2.27767000   -1.76625800   -2.07728500
 C                 -0.17548000    0.89154800   -2.07733000
 S                  0.88288500    1.33124500   -0.53427100
 N                 -1.70986000   -1.05511400    0.02220800
 C                 -1.19888200   -2.34273400    0.50997700
 C                  0.33157800   -2.27649700    0.70459900
 C                 -1.85918200   -2.68948200    1.86108700
 O                 -1.28374200   -2.41300500    2.91445800
 N                 -3.06845600   -3.31106000    1.84481100
 C                 -4.01701000   -3.39000600    0.73685200
 C                 -5.25070400   -2.55383700    1.06539200
 O                 -5.58608900   -2.27023800    2.19366000
 O                 -5.92570400   -2.21208100   -0.04739600
 H                 -7.34649200    3.78139600    1.36725800
 H                 -7.78572200    2.13333800    1.87850200
 H                 -5.12847300    2.86701800    1.21574900
 H                 -6.67439300    2.99735700   -0.82664400
 H                 -9.17524900    1.69168400   -0.10651500
 H                 -8.80899100    2.33454800   -1.55751000
 H                 -5.27684700    2.27906500   -2.25674600
 H                 -4.30619300    0.85391200   -2.63803500
 H                 -5.37799700   -0.41269700   -1.05517500
 H                 -0.15949900    1.81291000   -2.67318400
 H                  0.27202300    0.07166400   -2.65782900
 H                 -2.14480000    0.58007600   -2.83347900
 H                 -1.71652100    2.10336600   -0.35509800
 H                  0.69692900   -3.22678600    1.11419100
 H                  0.56888900   -1.49904400    1.43752100
 H                 -1.44832100   -3.07873300   -0.24326300
 H                 -1.32676500   -0.24831400    0.52130500
 H                 -4.33769700   -4.42817100    0.57203400
 H                 -3.57543000   -3.04427900   -0.19484200
 H                 -3.50725200   -3.34690400    2.75547500
 H                 -6.66135000   -1.56206900    0.17828800
 Se                 1.31255300   -1.90183700   -0.97951200
 N                  5.45323800   -1.14530900   -1.28652200
 O                  4.60099600   -1.46628900   -0.29288800
 O                  6.35256200   -1.94458100   -1.52147600
 O                  5.26075600   -0.07090800   -1.88353000

C H N O S Se P 0
6-31g(d)
****
Au     0
S    1   1.00
      2.8090000              1.0000000
S    1   1.00
      1.5950000              1.0000000
S    1   1.00
      0.5327000              1.0000000
S    1   1.00
      0.2826000              1.0000000
S    1   1.00
      0.0598000              1.0000000
P    1   1.00
      3.6840000              1.0000000
P    1   1.00
      1.6660000              1.0000000
P    1   1.00
      0.5989000              1.0000000
P    1   1.00
      0.0977000              1.0000000
P    1   1.00
      0.0279000              1.0000000
D    1   1.00
      1.2870000              1.0000000
D    1   1.00
      0.4335000              1.0000000
D    1   1.00
      0.1396000              1.0000000
F    1   1.00
      1.0500000              1.0000000
****

AU     0
AU-ECP     4     60
g potential
  5
1    622.6287956            -60.0000000
2    136.2843607           -555.5292312
2     33.1549781           -168.0019785
2      9.9894895            -63.0399875
2      3.0481312             -4.2516681
s-g potential
  6
0    194.7374304              3.0000000
1    351.5327447             38.6020880
2    122.3270402            864.8370727
2     32.0914617            374.9935520
2      5.2451812            289.7910100
2      4.4916223           -152.4532773
p-g potential
  4
0    420.6158801              2.0000000
1    109.4417815             73.8885625
2     34.1714280            326.6729872
2      5.9879750            126.5814591
d-g potential
  5
0    219.2666158              3.0000000
1    122.7297786             55.6793149
2     63.1063369            449.1987335
2     18.3684520            215.0269091
2      4.4972844             64.0840995
f-g potential
  5
0    108.5506037              4.0000000
1     56.4795527             51.8065335
2     29.2069159            231.2183113
2      9.5440543            119.0047386
2      2.8965118             15.3424188

